44
{"conf": 0, "E": 65.83, "rms": -1.0, "geom": "OH", "total_charge": 0, "CA_charge": 2, "smiles": "C[C:1]#[4N:2]->[Ru+2:3]1(<-[3H-:4])(<-[5C-:5]#[O+:6])(<-[6H-:7])<-[1N:8]([CH3:9])([CH3:10])[CH2:11][c:12]2[cH:13][cH:14][cH:15][c:16]([CH2:17][N:18]([CH3:19])[CH3:20])[2n:21]->12", "smiles3D": "C([C:1]#[4N:2]->[Ru+2:3]1(<-[3H-:4])(<-[5C-:5]#[O+:6])(<-[6H-:7])<-[1N:8]([C:9]([H:25])([H:26])[H:27])([C:10]([H:28])([H:29])[H:30])[C:11]([H:31])([H:32])[c:12]2[c:13]([H:33])[c:14]([H:34])[c:15]([H:35])[c:16]([C:17]([N:18]([C:19]([H:38])([H:39])[H:40])[C:20]([H:41])([H:42])[H:43])([H:36])[H:37])[2n:21]->12)([H:22])([H:23])[H:24]", "smiles3Dx": "C([C:1]#[4N:2]->[Ru+2:3]1(<-[3H-:4])(<-[5C-:5]#[O+:6])(<-[6H-:7])<-[1N:8]([C:9]([H:25])([H:26])[H:27])([C:10]([H:28])([H:29])[H:30])[C:11]([H:31])([H:32])[c:12]2[c:13]([H:33])[c:14]([H:34])[c:15]([H:35])[c:16]([C:17]([N:18]([C:19]([H:38])([H:39])[H:40])[C:20]([H:41])([H:42])[H:43])([H:36])[H:37])[2n:21]->12)([H:22])([H:23])[H:24]", "dummies": []}
C      0.1419    -3.3148     3.5132
C      0.0988    -2.3125     2.4490
N      0.0625    -1.4692     1.5563
Ru     0.0000     0.0000     0.0000
H     -1.6060    -0.4141    -0.3264
C      2.0689     0.4582     0.3265
O      3.2324     0.7168     0.5093
H      0.4952    -1.1622    -1.1101
N     -0.6385     1.6087     1.3180
C     -0.0938     1.4309     2.6110
C     -2.0499     1.5629     1.3717
C     -0.1790     2.8324     0.7140
C     -0.2361     2.7752    -0.8002
C     -0.3350     3.9473    -1.5587
C     -0.3530     3.8569    -2.9497
C     -0.2701     2.6080    -3.5657
C     -0.1570     1.4515    -2.7763
C     -0.0733     0.1015    -3.4388
N      1.3102    -0.4203    -3.4275
C      2.1870     0.3735    -4.3076
C      1.3148    -1.8227    -3.8762
N     -0.1120     1.5708    -1.4165
H     -0.1619    -2.8480     4.4727
H      1.1737    -3.7120     3.6054
H     -0.5534    -4.1440     3.2686
H     -0.5196     0.5271     3.0987
H     -0.3154     2.3157     3.2523
H      1.0060     1.3057     2.5514
H     -2.4797     1.7337     0.3600
H     -2.3830     0.5620     1.7254
H     -2.4499     2.3394     2.0649
H     -0.7905     3.6958     1.0702
H      0.8807     3.0260     0.9991
H     -0.4001     4.9158    -1.0788
H     -0.4341     4.7536    -3.5503
H     -0.2907     2.5437    -4.6466
H     -0.7576    -0.5844    -2.8942
H     -0.4626     0.1539    -4.4818
H      1.7887     0.4171    -5.3459
H      3.2086    -0.0640    -4.3321
H      2.2959     1.4057    -3.9141
H      0.9387    -1.9142    -4.9200
H      2.3440    -2.2388    -3.8235
H      0.6797    -2.4455    -3.2103
44
{"conf": 1, "E": 65.7, "rms": -1.0, "geom": "OH", "total_charge": 0, "CA_charge": 2, "smiles": "C[C:1]#[4N:2]->[Ru+2:3]1(<-[3H-:4])(<-[5C-:5]#[O+:6])(<-[6H-:7])<-[1N:8]([CH3:9])([CH3:10])[CH2:11][c:12]2[cH:13][cH:14][cH:15][c:16]([CH2:17][N:18]([CH3:19])[CH3:20])[2n:21]->12", "smiles3D": "C([C:1]#[4N:2]->[Ru+2:3]1(<-[3H-:4])(<-[5C-:5]#[O+:6])(<-[6H-:7])<-[1N:8]([C:9]([H:25])([H:26])[H:27])([C:10]([H:28])([H:29])[H:30])[C:11]([H:31])([H:32])[c:12]2[c:13]([H:33])[c:14]([H:34])[c:15]([H:35])[c:16]([C:17]([N:18]([C:19]([H:38])([H:39])[H:40])[C:20]([H:41])([H:42])[H:43])([H:36])[H:37])[2n:21]->12)([H:22])([H:23])[H:24]", "smiles3Dx": "C([C:1]#[4N:2]->[Ru+2:3]1(<-[3H-:4])(<-[5C-:5]#[O+:6])(<-[6H-:7])<-[1N:8]([C:9]([H:25])([H:26])[H:27])([C:10]([H:28])([H:29])[H:30])[C:11]([H:31])([H:32])[c:12]2[c:13]([H:33])[c:14]([H:34])[c:15]([H:35])[c:16]([C:17]([N:18]([C:19]([H:38])([H:39])[H:40])[C:20]([H:41])([H:42])[H:43])([H:36])[H:37])[2n:21]->12)([H:22])([H:23])[H:24]", "dummies": []}
C     -2.9524     3.6411    -1.1728
C     -2.0589     2.5386    -0.8189
N     -1.3081     1.6133    -0.5201
Ru     0.0000     0.0000     0.0000
H      1.2429     0.7271    -0.8851
C     -1.5997    -0.9819     1.0362
O     -2.4988    -1.5345     1.6196
H     -0.4725    -0.8263    -1.3875
N      0.7028     0.9394     1.8316
C      1.8061     1.7507     1.4826
C     -0.3220     1.7271     2.4053
C      1.1001    -0.1321     2.7077
C      1.7160    -1.2900     1.9465
C      2.6025    -2.1711     2.5761
C      3.1263    -3.2407     1.8519
C      2.7618    -3.4211     0.5174
C      1.8565    -2.5290    -0.0809
C      1.4968    -2.6939    -1.5348
N      1.8962    -1.5096    -2.3229
C      1.3241    -1.5948    -3.6766
C      3.3638    -1.4097    -2.4191
N      1.3367    -1.5056     0.6599
H     -2.6270     4.0865    -2.1353
H     -2.9185     4.4137    -0.3773
H     -3.9891     3.2591    -1.2734
H      1.5011     2.4941     0.7132
H      2.6234     1.1272     1.0573
H      2.1994     2.2963     2.3721
H     -1.2446     1.1258     2.5317
H     -0.0075     2.1080     3.4050
H     -0.5618     2.5975     1.7565
H      1.8314     0.2365     3.4664
H      0.2137    -0.5283     3.2547
H      2.8865    -2.0281     3.6112
H      3.8201    -3.9257     2.3220
H      3.1880    -4.2432    -0.0439
H      0.3998    -2.8586    -1.5924
H      1.9639    -3.6138    -1.9568
H      1.6937    -2.4959    -4.2157
H      0.2150    -1.6362    -3.6261
H      1.5883    -0.6879    -4.2621
H      3.8039    -2.3231    -2.8782
H      3.6497    -0.5257    -3.0292
H      3.8082    -1.2594    -1.4125
44
{"conf": 2, "E": 69.51, "rms": -1.0, "geom": "OH", "total_charge": 0, "CA_charge": 2, "smiles": "C[C:1]#[4N:2]->[Ru+2:3]1(<-[3H-:4])(<-[5C-:5]#[O+:6])(<-[6H-:7])<-[1N:8]([CH3:9])([CH3:10])[CH2:11][c:12]2[cH:13][cH:14][cH:15][c:16]([CH2:17][N:18]([CH3:19])[CH3:20])[2n:21]->12", "smiles3D": "C([C:1]#[4N:2]->[Ru+2:3]1(<-[3H-:4])(<-[5C-:5]#[O+:6])(<-[6H-:7])<-[1N:8]([C:9]([H:25])([H:26])[H:27])([C:10]([H:28])([H:29])[H:30])[C:11]([H:31])([H:32])[c:12]2[c:13]([H:33])[c:14]([H:34])[c:15]([H:35])[c:16]([C:17]([N:18]([C:19]([H:38])([H:39])[H:40])[C:20]([H:41])([H:42])[H:43])([H:36])[H:37])[2n:21]->12)([H:22])([H:23])[H:24]", "smiles3Dx": "C([C:1]#[4N:2]->[Ru+2:3]1(<-[3H-:4])(<-[5C-:5]#[O+:6])(<-[6H-:7])<-[1N:8]([C:9]([H:25])([H:26])[H:27])([C:10]([H:28])([H:29])[H:30])[C:11]([H:31])([H:32])[c:12]2[c:13]([H:33])[c:14]([H:34])[c:15]([H:35])[c:16]([C:17]([N:18]([C:19]([H:38])([H:39])[H:40])[C:20]([H:41])([H:42])[H:43])([H:36])[H:37])[2n:21]->12)([H:22])([H:23])[H:24]", "dummies": []}
C      1.5536    -3.6990     2.6941
C      1.0848    -2.5788     1.8789
N      0.6896    -1.6389     1.1936
Ru     0.0000     0.0000     0.0000
H      1.0325    -0.4702    -1.2529
C     -1.2232     0.6577     1.6397
O     -1.9093     1.0288     2.5594
H      1.2586     0.9576     0.5863
N     -1.5836    -1.1487    -0.9644
C     -1.1420    -2.4830    -1.1095
C     -2.7648    -1.1035    -0.1896
C     -1.7801    -0.5245    -2.2495
C     -1.6257     0.9820    -2.1833
C     -2.2148     1.8043    -3.1501
C     -1.9774     3.1769    -3.1108
C     -1.1722     3.7148    -2.1067
C     -0.6165     2.8649    -1.1317
C      0.2426     3.4348    -0.0264
N     -0.1558     4.8150     0.3285
C      0.9224     5.4757     1.0806
C     -1.3894     4.8125     1.1357
N     -0.8095     1.5163    -1.2384
H      2.6514    -3.8079     2.5764
H      1.0517    -4.6316     2.3637
H      1.3129    -3.5069     3.7598
H     -1.1054    -2.9987    -0.1246
H     -0.1198    -2.4947    -1.5443
H     -1.8241    -3.0533    -1.7826
H     -3.5668    -1.7251    -0.6523
H     -2.5654    -1.4889     0.8344
H     -3.1327    -0.0572    -0.1071
H     -2.7915    -0.7699    -2.6534
H     -1.0237    -0.9004    -2.9774
H     -2.8350     1.3851    -3.9325
H     -2.4160     3.8243    -3.8592
H     -0.9950     4.7826    -2.0899
H      0.1847     2.7967     0.8763
H      1.2930     3.4144    -0.3928
H      0.6231     6.5105     1.3547
H      1.1723     4.9118     2.0073
H      1.8330     5.5577     0.4490
H     -2.2156     4.3179     0.5820
H     -1.7128     5.8558     1.3397
H     -1.2402     4.2845     2.1042
