44
{"conf": 0, "E": 132.4, "rms": -1.0, "geom": "OH", "total_charge": 0, "CA_charge": 2, "smiles": "C[C:1]#[6N:2]->[Ru+2:3]1(<-[3H-:4])(<-[4C-:5]#[O+:6])(<-[5H-:7])<-[1N:8]([CH3:9])([CH3:10])[CH2:11][c:12]2[cH:13][cH:14][cH:15][c:16]([n:17]2)[CH2:18][2N:19]->1([CH3:20])[CH3:21]", "smiles3D": "C([C:1]#[6N:2]->[Ru+2:3]1(<-[3H-:4])(<-[4C-:5]#[O+:6])(<-[5H-:7])<-[1N:8]([C:9]([H:25])([H:26])[H:27])([C:10]([H:28])([H:29])[H:30])[C:11]([H:31])([H:32])[c:12]2[c:13]([H:33])[c:14]([H:34])[c:15]([H:35])[c:16]([n:17]2)[C:18]([H:36])([H:37])[2N:19]->1([C:20]([H:38])([H:39])[H:40])[C:21]([H:41])([H:42])[H:43])([H:22])([H:23])[H:24]", "smiles3Dx": "C([C:1]#[6N:2]->[Ru+2:3]1(<-[3H-:4])(<-[4C-:5]#[O+:6])(<-[5H-:7])<-[1N:8]([C:9]([H:25])([H:26])[H:27])([C:10]([H:28])([H:29])[H:30])[C:11]([H:31])([H:32])[c:12]2[c:13]([H:33])[c:14]([H:34])[c:15]([H:35])[c:16]([n:17]2)[C:18]([H:36])([H:37])[2N:19]->1([C:20]([H:38])([H:39])[H:40])[C:21]([H:41])([H:42])[H:43])([H:22])([H:23])[H:24]", "dummies": []}
C     -1.2428     4.6490     0.5047
C     -0.8592     3.2458     0.3550
N     -0.5347     2.0668     0.2297
Ru     0.0000     0.0000     0.0000
H     -0.6707    -0.2432     1.5397
C     -2.0203     0.0447    -0.7261
O     -3.1555     0.0760    -1.1323
H      0.5513     0.3392    -1.5610
N      0.0773    -2.2497    -0.5173
C      1.3523    -2.6266    -1.0533
C     -0.8660    -2.4621    -1.5755
C     -0.3139    -3.1049     0.5845
C      0.4264    -2.7127     1.7914
C      0.2843    -3.2760     3.0657
C      0.9120    -2.6344     4.1490
C      1.6194    -1.4362     3.9410
C      1.7119    -0.9416     2.6340
N      1.1369    -1.6020     1.6367
C      2.2118     0.3834     2.2441
N      2.0887     0.5394     0.8086
C      2.2785     1.9266     0.5130
C      3.1265    -0.1571     0.1091
H     -0.3490     5.2494     0.7721
H     -1.6659     5.0206    -0.4511
H     -2.0037     4.7406     1.3069
H      2.1022    -2.7634    -0.2606
H      1.3054    -3.5921    -1.6109
H      1.7031    -1.8423    -1.7519
H     -0.6907    -1.7172    -2.3833
H     -0.7835    -3.4859    -2.0132
H     -1.9094    -2.3487    -1.2175
H     -1.4007    -2.9952     0.8055
H     -0.1022    -4.1766     0.3576
H     -0.3179    -4.1620     3.2203
H      0.8120    -3.0373     5.1484
H      2.0509    -0.8962     4.7740
H      3.2739     0.4842     2.5705
H      1.6005     1.1448     2.7816
H      2.0393     2.1135    -0.5575
H      1.6185     2.5648     1.1335
H      3.3268     2.2583     0.7060
H      2.8891    -0.1809    -0.9723
H      4.1205     0.3340     0.2355
H      3.2406    -1.1881     0.4752
44
{"conf": 1, "E": 132.4, "rms": -1.0, "geom": "OH", "total_charge": 0, "CA_charge": 2, "smiles": "C[C:1]#[6N:2]->[Ru+2:3]1(<-[3H-:4])(<-[4C-:5]#[O+:6])(<-[5H-:7])<-[1N:8]([CH3:9])([CH3:10])[CH2:11][c:12]2[cH:13][cH:14][cH:15][c:16]([n:17]2)[CH2:18][2N:19]->1([CH3:20])[CH3:21]", "smiles3D": "C([C:1]#[6N:2]->[Ru+2:3]1(<-[3H-:4])(<-[4C-:5]#[O+:6])(<-[5H-:7])<-[1N:8]([C:9]([H:25])([H:26])[H:27])([C:10]([H:28])([H:29])[H:30])[C:11]([H:31])([H:32])[c:12]2[c:13]([H:33])[c:14]([H:34])[c:15]([H:35])[c:16]([n:17]2)[C:18]([H:36])([H:37])[2N:19]->1([C:20]([H:38])([H:39])[H:40])[C:21]([H:41])([H:42])[H:43])([H:22])([H:23])[H:24]", "smiles3Dx": "C([C:1]#[6N:2]->[Ru+2:3]1(<-[3H-:4])(<-[4C-:5]#[O+:6])(<-[5H-:7])<-[1N:8]([C:9]([H:25])([H:26])[H:27])([C:10]([H:28])([H:29])[H:30])[C:11]([H:31])([H:32])[c:12]2[c:13]([H:33])[c:14]([H:34])[c:15]([H:35])[c:16]([n:17]2)[C:18]([H:36])([H:37])[2N:19]->1([C:20]([H:38])([H:39])[H:40])[C:21]([H:41])([H:42])[H:43])([H:22])([H:23])[H:24]", "dummies": []}
C     -2.0049     3.4701     2.7114
C     -1.3976     2.4271     1.8856
N     -0.8866     1.5519     1.1899
Ru     0.0000     0.0000     0.0000
H      1.5157     0.4264     0.6134
C     -0.4372    -1.0138     1.8417
O     -0.6855    -1.5780     2.8784
H     -1.5787    -0.4034    -0.4740
N      0.9298    -1.9598    -0.7935
C      1.3734    -2.6989     0.3518
C      2.1066    -1.7101    -1.5732
C     -0.0155    -2.7960    -1.5042
C     -0.7238    -1.9870    -2.5055
C     -1.7452    -2.4329    -3.3535
C     -2.4589    -1.4736    -4.0949
C     -2.1674    -0.1062    -3.9379
C     -1.1301     0.2530    -3.0682
N     -0.4575    -0.6894    -2.4194
C     -0.8190     1.6128    -2.6083
N      0.2843     1.5613    -1.6700
C      0.3454     2.8317    -1.0141
C      1.5412     1.4031    -2.3383
H     -1.7964     4.4634     2.2636
H     -1.5770     3.4278     3.7341
H     -3.1015     3.3098     2.7620
H      1.9896    -3.5854     0.0672
H      1.9855    -2.0380     1.0051
H      0.5175    -3.0795     0.9453
H      1.8567    -1.3919    -2.5958
H      2.7093    -0.9196    -1.0854
H      2.7447    -2.6199    -1.6747
H     -0.7786    -3.2132    -0.8072
H      0.5006    -3.6422    -2.0163
H     -2.0019    -3.4827    -3.4142
H     -3.2619    -1.7840    -4.7505
H     -2.7518     0.6469    -4.4507
H     -0.5683     2.2488    -3.4901
H     -1.7356     2.0217    -2.1237
H      0.6532     3.6495    -1.7090
H     -0.6403     3.1173    -0.5962
H      1.0782     2.7824    -0.1784
H      2.3270     1.1710    -1.5933
H      1.5043     0.5967    -3.0855
H      1.8444     2.3267    -2.8862
44
{"conf": 2, "E": 146.65, "rms": -1.0, "geom": "OH", "total_charge": 0, "CA_charge": 2, "smiles": "C[C:1]#[6N:2]->[Ru+2:3]1(<-[3H-:4])(<-[4C-:5]#[O+:6])(<-[5H-:7])<-[1N:8]([CH3:9])([CH3:10])[CH2:11][c:12]2[cH:13][cH:14][cH:15][c:16]([n:17]2)[CH2:18][2N:19]->1([CH3:20])[CH3:21]", "smiles3D": "C([C:1]#[6N:2]->[Ru+2:3]1(<-[3H-:4])(<-[4C-:5]#[O+:6])(<-[5H-:7])<-[1N:8]([C:9]([H:25])([H:26])[H:27])([C:10]([H:28])([H:29])[H:30])[C:11]([H:31])([H:32])[c:12]2[c:13]([H:33])[c:14]([H:34])[c:15]([H:35])[c:16]([n:17]2)[C:18]([H:36])([H:37])[2N:19]->1([C:20]([H:38])([H:39])[H:40])[C:21]([H:41])([H:42])[H:43])([H:22])([H:23])[H:24]", "smiles3Dx": "C([C:1]#[6N:2]->[Ru+2:3]1(<-[3H-:4])(<-[4C-:5]#[O+:6])(<-[5H-:7])<-[1N:8]([C:9]([H:25])([H:26])[H:27])([C:10]([H:28])([H:29])[H:30])[C:11]([H:31])([H:32])[c:12]2[c:13]([H:33])[c:14]([H:34])[c:15]([H:35])[c:16]([n:17]2)[C:18]([H:36])([H:37])[2N:19]->1([C:20]([H:38])([H:39])[H:40])[C:21]([H:41])([H:42])[H:43])([H:22])([H:23])[H:24]", "dummies": []}
C     -4.5190    -1.0933    -1.3397
C     -3.1511    -0.7703    -0.9360
N     -2.0007    -0.5010    -0.5969
Ru     0.0000     0.0000     0.0000
H      0.2276     0.5591    -1.5828
C     -1.0433     1.8263     0.4314
O     -1.6327     2.8502     0.6735
H     -0.3560    -0.5137     1.5704
N      1.8947     1.0411     0.7688
C      1.9368     2.3314     0.1406
C      1.6821     1.2080     2.1624
C      3.1854     0.4063     0.6021
C      3.3976    -0.0276    -0.7888
C      4.6224    -0.5358    -1.2447
C      4.6082    -1.5070    -2.2563
C      3.3827    -2.0402    -2.6813
C      2.2000    -1.4899    -2.1641
N      2.2647    -0.4487    -1.3379
C      0.9949    -2.2950    -1.8838
N      0.6071    -2.1340    -0.4925
C      1.5816    -2.5877     0.4663
C     -0.5647    -2.9301    -0.2971
H     -5.2162    -0.8488    -0.5121
H     -4.5887    -2.1752    -1.5748
H     -4.7889    -0.5012    -2.2382
H      2.9105     2.8482     0.3073
H      1.1412     3.0024     0.5220
H      1.7880     2.2098    -0.9521
H      0.7136     1.7142     2.3521
H      1.6503     0.2160     2.6650
H      2.4950     1.8172     2.6255
H      4.0182     1.0896     0.8959
H      3.2512    -0.4940     1.2519
H      5.5530    -0.2594    -0.7657
H      5.5369    -1.9395    -2.6050
H      3.3604    -2.9243    -3.3058
H      1.2030    -3.3679    -2.1119
H      0.1790    -1.9365    -2.5516
H      1.4047    -2.0576     1.4242
H      2.6163    -2.3830     0.1455
H      1.5213    -3.6842     0.6594
H     -1.3186    -2.7411    -1.0881
H     -1.0201    -2.6854     0.6875
H     -0.3348    -4.0220    -0.3215
44
{"conf": 3, "E": 146.84, "rms": -1.0, "geom": "OH", "total_charge": 0, "CA_charge": 2, "smiles": "C[C:1]#[6N:2]->[Ru+2:3]1(<-[3H-:4])(<-[4C-:5]#[O+:6])(<-[5H-:7])<-[1N:8]([CH3:9])([CH3:10])[CH2:11][c:12]2[cH:13][cH:14][cH:15][c:16]([n:17]2)[CH2:18][2N:19]->1([CH3:20])[CH3:21]", "smiles3D": "C([C:1]#[6N:2]->[Ru+2:3]1(<-[3H-:4])(<-[4C-:5]#[O+:6])(<-[5H-:7])<-[1N:8]([C:9]([H:25])([H:26])[H:27])([C:10]([H:28])([H:29])[H:30])[C:11]([H:31])([H:32])[c:12]2[c:13]([H:33])[c:14]([H:34])[c:15]([H:35])[c:16]([n:17]2)[C:18]([H:36])([H:37])[2N:19]->1([C:20]([H:38])([H:39])[H:40])[C:21]([H:41])([H:42])[H:43])([H:22])([H:23])[H:24]", "smiles3Dx": "C([C:1]#[6N:2]->[Ru+2:3]1(<-[3H-:4])(<-[4C-:5]#[O+:6])(<-[5H-:7])<-[1N:8]([C:9]([H:25])([H:26])[H:27])([C:10]([H:28])([H:29])[H:30])[C:11]([H:31])([H:32])[c:12]2[c:13]([H:33])[c:14]([H:34])[c:15]([H:35])[c:16]([n:17]2)[C:18]([H:36])([H:37])[2N:19]->1([C:20]([H:38])([H:39])[H:40])[C:21]([H:41])([H:42])[H:43])([H:22])([H:23])[H:24]", "dummies": []}
C      4.0129     2.3471    -1.3366
C      2.7998     1.6350    -0.9370
N      1.7805     1.0350    -0.6028
Ru     0.0000     0.0000     0.0000
H      0.9262    -0.7979     1.1673
C     -0.0708     1.7358     1.2625
O     -0.1062     2.7129     1.9687
H     -0.8658     0.9169    -1.1311
N     -1.8656    -0.7895     1.0422
C     -1.7666    -2.2224     1.1664
C     -1.8465    -0.2621     2.3734
C     -3.0897    -0.3111     0.4220
C     -3.1848    -0.8212    -0.9605
C     -4.2781    -1.5687    -1.4246
C     -4.0409    -2.5901    -2.3560
C     -2.7206    -2.9155    -2.6996
C     -1.6839    -2.1120    -2.2041
N     -1.9710    -1.0556    -1.4531
C     -0.3468    -2.6424    -1.8883
N      0.5779    -1.5808    -1.5517
C      1.7524    -2.1829    -1.0330
C      0.9070    -0.8652    -2.7503
H      3.7474     3.3711    -1.6707
H      4.5037     1.8019    -2.1688
H      4.7072     2.4077    -0.4735
H     -2.2147    -2.7531     0.3103
H     -2.2698    -2.6160     2.0803
H     -0.6932    -2.4951     1.2193
H     -2.6166    -0.7438     3.0221
H     -2.0542     0.8280     2.3819
H     -0.8450    -0.4326     2.8264
H     -3.9820    -0.6460     1.0036
H     -3.0850     0.8016     0.3788
H     -5.2641    -1.4401    -0.9964
H     -4.8583    -3.2111    -2.6985
H     -2.5075    -3.8198    -3.2552
H     -0.4528    -3.3396    -1.0284
H      0.0169    -3.2402    -2.7584
H      2.2098    -2.8822    -1.7733
H      1.5137    -2.7510    -0.1068
H      2.5024    -1.4080    -0.7709
H      0.0817    -0.1663    -2.9984
H      1.0613    -1.5495    -3.6171
H      1.8338    -0.2713    -2.6330
