38
{"conf": 0, "E": 81.3, "rms": -1.0, "geom": "OH", "total_charge": 0, "CA_charge": 2, "smiles": "C[1N:1]1([CH3:2])->[Ru+2:3]2(<-[3H-:4])(<-[4C-:5]#[O+:6])(<-[5H-:7])<-[2n:8]3[c:9]([cH:10][cH:11][cH:12][c:13]3[CH2:14][6N:15]->2([CH3:16])[CH3:17])[CH2:18]1", "smiles3D": "C([1N:1]1([C:2]([H:22])([H:23])[H:24])->[Ru+2:3]2(<-[3H-:4])(<-[4C-:5]#[O+:6])(<-[5H-:7])<-[2n:8]3[c:9]([c:10]([H:25])[c:11]([H:26])[c:12]([H:27])[c:13]3[C:14]([H:28])([H:29])[6N:15]->2([C:16]([H:30])([H:31])[H:32])[C:17]([H:33])([H:34])[H:35])[C:18]1([H:36])[H:37])([H:19])([H:20])[H:21]", "smiles3Dx": "C([1N:1]1([C:2]([H:22])([H:23])[H:24])->[Ru+2:3]2(<-[3H-:4])(<-[4C-:5]#[O+:6])(<-[5H-:7])<-[2n:8]3[c:9]([c:10]([H:25])[c:11]([H:26])[c:12]([H:27])[c:13]3[C:14]([H:28])([H:29])[6N:15]->2([C:16]([H:30])([H:31])[H:32])[C:17]([H:33])([H:34])[H:35])[C:18]1([H:36])[H:37])([H:19])([H:20])[H:21]", "dummies": []}
C     -1.5112    -1.3903     2.0727
N     -0.6827    -0.2502     2.0613
C     -1.4140     0.9002     2.4228
Ru     0.0000     0.0000     0.0000
H      0.4613     1.5852     0.3621
C     -1.8239     0.7256    -0.8632
O     -2.8495     1.1337    -1.3487
H     -0.4584    -1.5863    -0.3607
N      1.6884    -0.6717     0.7991
C      1.7188    -0.8488     2.1291
C      2.8997    -1.3057     2.7265
C      4.0020    -1.5922     1.8942
C      3.9145    -1.4054     0.4987
C      2.7147    -0.9150    -0.0307
C      2.4757    -0.7430    -1.5175
N      1.2505     0.0242    -1.7926
C      0.5091    -0.5403    -2.8511
C      1.5443     1.3771    -2.0571
C      0.4948    -0.4387     2.9235
H     -1.9948    -1.5238     3.0685
H     -0.9115    -2.2990     1.8430
H     -2.3033    -1.2903     1.2984
H     -1.7323     0.8434     3.4897
H     -2.3192     1.0071     1.7864
H     -0.7848     1.8054     2.2868
H      2.9697    -1.4357     3.7990
H      4.9225    -1.9584     2.3299
H      4.7550    -1.6376    -0.1427
H      3.3680    -0.2441    -1.9647
H      2.4073    -1.7636    -1.9612
H     -0.3928     0.0716    -3.0699
H      1.1303    -0.6039    -3.7747
H      0.1762    -1.5633    -2.5749
H      0.6025     1.9669    -2.1034
H      2.1781     1.7952    -1.2436
H      2.0870     1.4871    -3.0249
H      0.3001    -1.2151     3.7009
H      0.7479     0.5085     3.4545
38
{"conf": 1, "E": 81.3, "rms": -1.0, "geom": "OH", "total_charge": 0, "CA_charge": 2, "smiles": "C[1N:1]1([CH3:2])->[Ru+2:3]2(<-[3H-:4])(<-[4C-:5]#[O+:6])(<-[5H-:7])<-[2n:8]3[c:9]([cH:10][cH:11][cH:12][c:13]3[CH2:14][6N:15]->2([CH3:16])[CH3:17])[CH2:18]1", "smiles3D": "C([1N:1]1([C:2]([H:22])([H:23])[H:24])->[Ru+2:3]2(<-[3H-:4])(<-[4C-:5]#[O+:6])(<-[5H-:7])<-[2n:8]3[c:9]([c:10]([H:25])[c:11]([H:26])[c:12]([H:27])[c:13]3[C:14]([H:28])([H:29])[6N:15]->2([C:16]([H:30])([H:31])[H:32])[C:17]([H:33])([H:34])[H:35])[C:18]1([H:36])[H:37])([H:19])([H:20])[H:21]", "smiles3Dx": "C([1N:1]1([C:2]([H:22])([H:23])[H:24])->[Ru+2:3]2(<-[3H-:4])(<-[4C-:5]#[O+:6])(<-[5H-:7])<-[2n:8]3[c:9]([c:10]([H:25])[c:11]([H:26])[c:12]([H:27])[c:13]3[C:14]([H:28])([H:29])[6N:15]->2([C:16]([H:30])([H:31])[H:32])[C:17]([H:33])([H:34])[H:35])[C:18]1([H:36])[H:37])([H:19])([H:20])[H:21]", "dummies": []}
C      2.3526    -0.0734    -1.7240
N      1.5807    -1.0587    -1.0762
C      2.3592    -1.7598    -0.1321
Ru     0.0000     0.0000     0.0000
H      0.2845     1.3901    -0.9183
C      1.1782     0.8115     1.5974
O      1.8407     1.2678     2.4956
H     -0.2863    -1.3914     0.9158
N     -1.0907    -0.7512    -1.4787
C     -0.4854    -1.5917    -2.3321
C     -1.2305    -2.1522    -3.3766
C     -2.5852    -1.7804    -3.5052
C     -3.1713    -0.8793    -2.5917
C     -2.3786    -0.3807    -1.5509
C     -2.8737     0.6477    -0.5537
N     -1.9475     0.8061     0.5789
C     -1.7747     2.1623     0.9246
C     -2.3740     0.0587     1.6951
C      0.9548    -1.9693    -2.0481
H      1.7447     0.4332    -2.5063
H      2.6830     0.6928    -0.9887
H      3.2523    -0.5224    -2.2061
H      1.7117    -2.4423     0.4584
H      2.8539    -1.0550     0.5710
H      3.1441    -2.3647    -0.6427
H     -0.7829    -2.8539    -4.0687
H     -3.1798    -2.1898    -4.3114
H     -4.2070    -0.5826    -2.6970
H     -2.9900     1.6110    -1.1029
H     -3.8867     0.3405    -0.2009
H     -2.7552     2.6325     1.1700
H     -1.1020     2.2615     1.8041
H     -1.3186     2.7131     0.0746
H     -1.5843     0.0639     2.4783
H     -2.5628    -0.9967     1.3971
H     -3.3118     0.4814     2.1254
H      1.5172    -1.9725    -3.0117
H      0.9518    -3.0147    -1.6605
