44
{"conf": 0, "E": 72.78, "rms": -1.0, "geom": "OH", "total_charge": 0, "CA_charge": 2, "smiles": "C[C:1]#[5N:2]->[Ru+2:3]1(<-[3H-:4])(<-[4H-:5])(<-[6C-:6]#[O+:7])<-[1N:8]([CH3:9])([CH3:10])[CH2:11][c:12]2[cH:13][cH:14][cH:15][c:16]([CH2:17][N:18]([CH3:19])[CH3:20])[2n:21]->12", "smiles3D": "C([C:1]#[5N:2]->[Ru+2:3]1(<-[3H-:4])(<-[4H-:5])(<-[6C-:6]#[O+:7])<-[1N:8]([C:9]([H:25])([H:26])[H:27])([C:10]([H:28])([H:29])[H:30])[C:11]([H:31])([H:32])[c:12]2[c:13]([H:33])[c:14]([H:34])[c:15]([H:35])[c:16]([C:17]([N:18]([C:19]([H:38])([H:39])[H:40])[C:20]([H:41])([H:42])[H:43])([H:36])[H:37])[2n:21]->12)([H:22])([H:23])[H:24]", "smiles3Dx": "C([C:1]#[5N:2]->[Ru+2:3]1(<-[3H-:4])(<-[4H-:5])(<-[6C-:6]#[O+:7])<-[1N:8]([C:9]([H:25])([H:26])[H:27])([C:10]([H:28])([H:29])[H:30])[C:11]([H:31])([H:32])[c:12]2[c:13]([H:33])[c:14]([H:34])[c:15]([H:35])[c:16]([C:17]([N:18]([C:19]([H:38])([H:39])[H:40])[C:20]([H:41])([H:42])[H:43])([H:36])[H:37])[2n:21]->12)([H:22])([H:23])[H:24]", "dummies": []}
C      0.9434     4.1900    -2.2180
C      0.6570     2.9212    -1.5496
N      0.4179     1.8558    -0.9866
Ru     0.0000     0.0000     0.0000
H     -0.3978    -1.4563     0.7603
H      0.3692    -0.8431    -1.4173
C     -2.0062     0.2266    -0.7046
O     -3.1262     0.3545    -1.1325
N      2.0432    -0.0990     0.6872
C      2.1702    -1.2568     1.4869
C      2.8993    -0.1717    -0.4320
C      2.2531     1.1009     1.4473
C      1.0315     1.4606     2.2724
C      1.1661     2.1961     3.4547
C      0.0473     2.4095     4.2523
C     -1.1765     1.8571     3.8839
C     -1.2899     1.1455     2.6752
C     -2.5699     0.3949     2.3898
N     -3.5717     1.2036     1.6574
C     -4.7865     0.3951     1.4470
C     -3.9394     2.4336     2.3821
N     -0.1959     1.0418     1.8566
H      0.1544     4.9275    -1.9645
H      0.9644     4.0329    -3.3160
H      1.9287     4.5712    -1.8797
H      1.4843    -1.1993     2.3602
H      1.9014    -2.1596     0.8949
H      3.2146    -1.3707     1.8597
H      2.7132     0.6826    -1.1155
H      2.7190    -1.1121    -0.9990
H      3.9666    -0.1459    -0.1112
H      2.4649     1.9583     0.7692
H      3.1304     0.9777     2.1262
H      2.1326     2.5696     3.7695
H      0.1389     2.9573     5.1814
H     -2.0220     1.9547     4.5532
H     -2.3212    -0.5201     1.8142
H     -2.9996     0.0330     3.3527
H     -5.2905     0.1626     2.4122
H     -4.5393    -0.5621     0.9393
H     -5.4973     0.9395     0.7887
H     -4.7757     2.9543     1.8667
H     -4.2473     2.2113     3.4279
H     -3.0887     3.1461     2.3843
44
{"conf": 1, "E": 72.78, "rms": -1.0, "geom": "OH", "total_charge": 0, "CA_charge": 2, "smiles": "C[C:1]#[5N:2]->[Ru+2:3]1(<-[3H-:4])(<-[4H-:5])(<-[6C-:6]#[O+:7])<-[1N:8]([CH3:9])([CH3:10])[CH2:11][c:12]2[cH:13][cH:14][cH:15][c:16]([CH2:17][N:18]([CH3:19])[CH3:20])[2n:21]->12", "smiles3D": "C([C:1]#[5N:2]->[Ru+2:3]1(<-[3H-:4])(<-[4H-:5])(<-[6C-:6]#[O+:7])<-[1N:8]([C:9]([H:25])([H:26])[H:27])([C:10]([H:28])([H:29])[H:30])[C:11]([H:31])([H:32])[c:12]2[c:13]([H:33])[c:14]([H:34])[c:15]([H:35])[c:16]([C:17]([N:18]([C:19]([H:38])([H:39])[H:40])[C:20]([H:41])([H:42])[H:43])([H:36])[H:37])[2n:21]->12)([H:22])([H:23])[H:24]", "smiles3Dx": "C([C:1]#[5N:2]->[Ru+2:3]1(<-[3H-:4])(<-[4H-:5])(<-[6C-:6]#[O+:7])<-[1N:8]([C:9]([H:25])([H:26])[H:27])([C:10]([H:28])([H:29])[H:30])[C:11]([H:31])([H:32])[c:12]2[c:13]([H:33])[c:14]([H:34])[c:15]([H:35])[c:16]([C:17]([N:18]([C:19]([H:38])([H:39])[H:40])[C:20]([H:41])([H:42])[H:43])([H:36])[H:37])[2n:21]->12)([H:22])([H:23])[H:24]", "dummies": []}
C     -2.4317    -3.2647     2.6066
C     -1.6971    -2.2782     1.8155
N     -1.0800    -1.4482     1.1526
Ru     0.0000     0.0000     0.0000
H      0.8882     1.0893    -0.9390
H     -1.2022    -0.0399    -1.1870
C      0.9463    -1.6605    -0.9591
O      1.4507    -2.6072    -1.5098
N     -0.9917     1.5930     1.0656
C     -2.3787     1.5145     0.8187
C     -0.4700     2.8164     0.5889
C     -0.6797     1.3830     2.4513
C      0.7523     0.9167     2.6372
C      1.4346     1.1809     3.8295
C      2.7811     0.8485     3.9288
C      3.4368     0.2964     2.8317
C      2.7197     0.0151     1.6540
C      3.4836    -0.4011     0.4186
N      3.6568    -1.8678     0.3039
C      4.3588    -2.4431     1.4655
C      4.4286    -2.1703    -0.9153
N      1.3708     0.2541     1.6208
H     -3.3925    -2.8252     2.9448
H     -2.6330    -4.1613     1.9851
H     -1.8263    -3.5547     3.4898
H     -2.5919     1.6858    -0.2600
H     -2.9271     2.2779     1.4179
H     -2.7617     0.5086     1.0891
H      0.6251     2.8671     0.7751
H     -0.9587     3.6817     1.0942
H     -0.6387     2.9008    -0.5075
H     -0.8359     2.3257     3.0280
H     -1.3459     0.6036     2.8856
H      0.9365     1.6687     4.6581
H      3.3290     1.0667     4.8364
H      4.5037     0.1208     2.8885
H      2.9540    -0.0070    -0.4728
H      4.4779     0.1030     0.4209
H      4.5778    -3.5197     1.2944
H      5.3154    -1.9113     1.6654
H      3.7103    -2.4007     2.3650
H      5.4712    -1.7871    -0.8401
H      4.4573    -3.2681    -1.0856
H      3.9493    -1.7140    -1.8081
44
{"conf": 2, "E": 71.03, "rms": -1.0, "geom": "OH", "total_charge": 0, "CA_charge": 2, "smiles": "C[C:1]#[5N:2]->[Ru+2:3]1(<-[3H-:4])(<-[4H-:5])(<-[6C-:6]#[O+:7])<-[1N:8]([CH3:9])([CH3:10])[CH2:11][c:12]2[cH:13][cH:14][cH:15][c:16]([CH2:17][N:18]([CH3:19])[CH3:20])[2n:21]->12", "smiles3D": "C([C:1]#[5N:2]->[Ru+2:3]1(<-[3H-:4])(<-[4H-:5])(<-[6C-:6]#[O+:7])<-[1N:8]([C:9]([H:25])([H:26])[H:27])([C:10]([H:28])([H:29])[H:30])[C:11]([H:31])([H:32])[c:12]2[c:13]([H:33])[c:14]([H:34])[c:15]([H:35])[c:16]([C:17]([N:18]([C:19]([H:38])([H:39])[H:40])[C:20]([H:41])([H:42])[H:43])([H:36])[H:37])[2n:21]->12)([H:22])([H:23])[H:24]", "smiles3Dx": "C([C:1]#[5N:2]->[Ru+2:3]1(<-[3H-:4])(<-[4H-:5])(<-[6C-:6]#[O+:7])<-[1N:8]([C:9]([H:25])([H:26])[H:27])([C:10]([H:28])([H:29])[H:30])[C:11]([H:31])([H:32])[c:12]2[c:13]([H:33])[c:14]([H:34])[c:15]([H:35])[c:16]([C:17]([N:18]([C:19]([H:38])([H:39])[H:40])[C:20]([H:41])([H:42])[H:43])([H:36])[H:37])[2n:21]->12)([H:22])([H:23])[H:24]", "dummies": []}
C     -2.1482    -4.0729     1.4797
C     -1.4977    -2.8447     1.0255
N     -0.9527    -1.8103     0.6482
Ru     0.0000     0.0000     0.0000
H      0.8088     1.4025    -0.4865
H      0.5881    -0.8099    -1.3618
C      1.7856    -0.5290     1.0607
O      2.7918    -0.8275     1.6548
N     -1.7363     0.7286    -1.0673
C     -2.8071    -0.1810    -0.9205
C     -1.3797     0.8634    -2.4248
C     -2.0371     2.0009    -0.4684
C     -1.8399     1.9756     1.0352
C     -2.5150     2.8839     1.8578
C     -2.2990     2.8459     3.2325
C     -1.4508     1.8814     3.7734
C     -0.8119     0.9590     2.9233
C      0.0147    -0.1556     3.5181
N     -0.5397    -0.6200     4.8092
C      0.4750    -1.3869     5.5490
C     -1.7332    -1.4590     4.5973
N     -0.9452     1.1005     1.5677
H     -3.0594    -3.8151     2.0577
H     -2.4284    -4.6898     0.6014
H     -1.4498    -4.6429     2.1263
H     -2.5200    -1.1793    -1.3175
H     -3.7076     0.1749    -1.4732
H     -3.0722    -0.2938     0.1535
H     -0.4532     1.4708    -2.5143
H     -1.1826    -0.1340    -2.8775
H     -2.1940     1.3636    -2.9988
H     -1.3632     2.7882    -0.8782
H     -3.0886     2.2989    -0.6948
H     -3.1950     3.6144     1.4376
H     -2.8062     3.5483     3.8812
H     -1.3163     1.8410     4.8470
H      1.0410     0.2484     3.6631
H      0.0685    -1.0119     2.8217
H      0.0584    -1.7460     6.5149
H      0.8298    -2.2613     4.9582
H      1.3428    -0.7366     5.7910
H     -2.5042    -0.9030     4.0225
H     -1.4801    -2.3933     4.0486
H     -2.1861    -1.7281     5.5755
44
{"conf": 3, "E": 73.58, "rms": -1.0, "geom": "OH", "total_charge": 0, "CA_charge": 2, "smiles": "C[C:1]#[5N:2]->[Ru+2:3]1(<-[3H-:4])(<-[4H-:5])(<-[6C-:6]#[O+:7])<-[1N:8]([CH3:9])([CH3:10])[CH2:11][c:12]2[cH:13][cH:14][cH:15][c:16]([CH2:17][N:18]([CH3:19])[CH3:20])[2n:21]->12", "smiles3D": "C([C:1]#[5N:2]->[Ru+2:3]1(<-[3H-:4])(<-[4H-:5])(<-[6C-:6]#[O+:7])<-[1N:8]([C:9]([H:25])([H:26])[H:27])([C:10]([H:28])([H:29])[H:30])[C:11]([H:31])([H:32])[c:12]2[c:13]([H:33])[c:14]([H:34])[c:15]([H:35])[c:16]([C:17]([N:18]([C:19]([H:38])([H:39])[H:40])[C:20]([H:41])([H:42])[H:43])([H:36])[H:37])[2n:21]->12)([H:22])([H:23])[H:24]", "smiles3Dx": "C([C:1]#[5N:2]->[Ru+2:3]1(<-[3H-:4])(<-[4H-:5])(<-[6C-:6]#[O+:7])<-[1N:8]([C:9]([H:25])([H:26])[H:27])([C:10]([H:28])([H:29])[H:30])[C:11]([H:31])([H:32])[c:12]2[c:13]([H:33])[c:14]([H:34])[c:15]([H:35])[c:16]([C:17]([N:18]([C:19]([H:38])([H:39])[H:40])[C:20]([H:41])([H:42])[H:43])([H:36])[H:37])[2n:21]->12)([H:22])([H:23])[H:24]", "dummies": []}
C      4.2936    -0.2696    -2.2085
C      2.9969    -0.1844    -1.5384
N      1.9081    -0.1108    -0.9737
Ru     0.0000     0.0000     0.0000
H     -1.5305     0.1211     0.7075
H     -0.6452    -0.9884    -1.2096
C     -0.5250     1.6886    -1.2003
O     -0.8391     2.6303    -1.8851
N      0.3815    -1.7089     1.2683
C     -0.5790    -2.6958     0.9625
C      1.6882    -2.1989     1.0449
C      0.2244    -1.2157     2.6029
C      0.8230     0.1673     2.7697
C      1.2862     0.5827     4.0228
C      1.8118     1.8587     4.1677
C      1.8746     2.7041     3.0668
C      1.3895     2.2746     1.8175
C      1.5520     3.1988     0.6343
N      2.5214     2.6759    -0.3500
C      3.8747     2.5961     0.2334
C      2.5606     3.5561    -1.5297
N      0.8380     1.0203     1.7055
H      4.3173    -1.1706    -2.8552
H      4.4482     0.6368    -2.8291
H      5.0979    -0.3381    -1.4476
H     -0.5212    -3.5409     1.6874
H     -0.4175    -3.0937    -0.0644
H     -1.5993    -2.2570     1.0046
H      1.8971    -3.0800     1.6953
H      1.8067    -2.5078    -0.0168
H      2.4392    -1.4092     1.2661
H      0.7011    -1.9132     3.3326
H     -0.8575    -1.1409     2.8597
H      1.2436    -0.0804     4.8780
H      2.1824     2.1887     5.1296
H      2.3143     3.6867     3.1862
H      1.8804     4.2068     0.9794
H      0.5632     3.3887     0.1880
H      4.1931     3.5743     0.6582
H      3.9049     1.8241     1.0308
H      4.6133     2.2843    -0.5363
H      1.5555     3.6377    -1.9906
H      3.2363     3.1294    -2.3021
H      2.9142     4.5771    -1.2616
