44
{"conf": 0, "E": 77.64, "rms": -1.0, "geom": "OH", "total_charge": 0, "CA_charge": 2, "smiles": "C[C:1]#[5N:2]->[Ru+2:3]1(<-[3C-:4]#[O+:5])(<-[4H-:6])(<-[6H-:7])<-[1N:8]([CH3:9])([CH3:10])[CH2:11][c:12]2[cH:13][cH:14][cH:15][c:16]([CH2:17][N:18]([CH3:19])[CH3:20])[2n:21]->12", "smiles3D": "C([C:1]#[5N:2]->[Ru+2:3]1(<-[3C-:4]#[O+:5])(<-[4H-:6])(<-[6H-:7])<-[1N:8]([C:9]([H:25])([H:26])[H:27])([C:10]([H:28])([H:29])[H:30])[C:11]([H:31])([H:32])[c:12]2[c:13]([H:33])[c:14]([H:34])[c:15]([H:35])[c:16]([C:17]([N:18]([C:19]([H:38])([H:39])[H:40])[C:20]([H:41])([H:42])[H:43])([H:36])[H:37])[2n:21]->12)([H:22])([H:23])[H:24]", "smiles3Dx": "C([C:1]#[5N:2]->[Ru+2:3]1(<-[3C-:4]#[O+:5])(<-[4H-:6])(<-[6H-:7])<-[1N:8]([C:9]([H:25])([H:26])[H:27])([C:10]([H:28])([H:29])[H:30])[C:11]([H:31])([H:32])[c:12]2[c:13]([H:33])[c:14]([H:34])[c:15]([H:35])[c:16]([C:17]([N:18]([C:19]([H:38])([H:39])[H:40])[C:20]([H:41])([H:42])[H:43])([H:36])[H:37])[2n:21]->12)([H:22])([H:23])[H:24]", "dummies": []}
C     -1.7258     4.1947    -1.6805
C     -1.2050     2.9268    -1.1714
N     -0.7699     1.8592    -0.7465
Ru     0.0000     0.0000     0.0000
C      0.9110    -1.8305     0.6503
O      1.4221    -2.8599     1.0154
H      0.8760     0.8479     1.1702
H      1.2861     0.1306    -1.0839
N     -1.6908    -0.3339     1.3306
C     -1.2204    -0.3762     2.6620
C     -2.6166     0.7245     1.1789
C     -2.2713    -1.5878     0.9215
C     -2.2091    -1.7802    -0.5841
C     -3.0259    -2.7250    -1.2136
C     -2.8636    -2.9618    -2.5766
C     -1.9297    -2.2242    -3.3039
C     -1.1726    -1.2318    -2.6572
C     -0.2483    -0.3308    -3.4560
N     -0.8805     0.3705    -4.6017
C     -0.8881    -0.3811    -5.8678
C     -2.1935     0.9632    -4.3025
N     -1.2625    -1.1132    -1.2974
H     -2.8153     4.2530    -1.4799
H     -1.5477     4.2541    -2.7740
H     -1.2100     5.0365    -1.1745
H     -0.4485    -1.1639     2.7779
H     -2.0561    -0.5931     3.3674
H     -0.7616     0.5988     2.9395
H     -2.9800     0.7696     0.1288
H     -3.4951     0.5856     1.8517
H     -2.1337     1.6955     1.4258
H     -1.7219    -2.4370     1.3881
H     -3.3357    -1.6528     1.2512
H     -3.7522    -3.2953    -0.6480
H     -3.4627    -3.7158    -3.0705
H     -1.8061    -2.4364    -4.3530
H      0.6385    -0.9149    -3.7836
H      0.1356     0.4651    -2.8001
H     -0.8199     0.3377    -6.7111
H     -0.0153    -1.0638    -5.9462
H     -1.8241    -0.9629    -6.0013
H     -2.1554     1.5271    -3.3494
H     -2.9829     0.1848    -4.2286
H     -2.4730     1.6783    -5.1052
44
{"conf": 1, "E": 68.13, "rms": -1.0, "geom": "OH", "total_charge": 0, "CA_charge": 2, "smiles": "C[C:1]#[5N:2]->[Ru+2:3]1(<-[3C-:4]#[O+:5])(<-[4H-:6])(<-[6H-:7])<-[1N:8]([CH3:9])([CH3:10])[CH2:11][c:12]2[cH:13][cH:14][cH:15][c:16]([CH2:17][N:18]([CH3:19])[CH3:20])[2n:21]->12", "smiles3D": "C([C:1]#[5N:2]->[Ru+2:3]1(<-[3C-:4]#[O+:5])(<-[4H-:6])(<-[6H-:7])<-[1N:8]([C:9]([H:25])([H:26])[H:27])([C:10]([H:28])([H:29])[H:30])[C:11]([H:31])([H:32])[c:12]2[c:13]([H:33])[c:14]([H:34])[c:15]([H:35])[c:16]([C:17]([N:18]([C:19]([H:38])([H:39])[H:40])[C:20]([H:41])([H:42])[H:43])([H:36])[H:37])[2n:21]->12)([H:22])([H:23])[H:24]", "smiles3Dx": "C([C:1]#[5N:2]->[Ru+2:3]1(<-[3C-:4]#[O+:5])(<-[4H-:6])(<-[6H-:7])<-[1N:8]([C:9]([H:25])([H:26])[H:27])([C:10]([H:28])([H:29])[H:30])[C:11]([H:31])([H:32])[c:12]2[c:13]([H:33])[c:14]([H:34])[c:15]([H:35])[c:16]([C:17]([N:18]([C:19]([H:38])([H:39])[H:40])[C:20]([H:41])([H:42])[H:43])([H:36])[H:37])[2n:21]->12)([H:22])([H:23])[H:24]", "dummies": []}
C      0.5571    -4.1233    -2.4591
C      0.3914    -2.8763    -1.7132
N      0.2514    -1.8279    -1.0883
Ru     0.0000     0.0000     0.0000
C     -0.2778     1.7336     1.2382
O     -0.4345     2.7061     1.9339
H      1.6691     0.0935     0.2462
H     -0.1670    -0.9333     1.3896
N      0.0970     1.1455    -1.8559
C      0.0322     2.5320    -1.5775
C      1.3193     0.8449    -2.4983
C     -1.0377     0.7270    -2.6357
C     -2.2501     0.4423    -1.7682
C     -3.5424     0.5377    -2.2971
C     -4.6301     0.1729    -1.5069
C     -4.4187    -0.3114    -0.2168
C     -3.1088    -0.4200     0.2792
C     -2.8827    -0.9921     1.6557
N     -2.3883     0.0347     2.5947
C     -3.4399     1.0218     2.8997
C     -1.9422    -0.6033     3.8440
N     -2.0607    -0.0247    -0.5053
H      1.1294    -4.8484    -1.8448
H     -0.4403    -4.5462    -2.6978
H      1.1077    -3.9200    -3.4005
H      0.8547     2.8228    -0.8875
H     -0.9383     2.7848    -1.0967
H      0.1275     3.1315    -2.5132
H      2.1761     1.1689    -1.8666
H      1.4118    -0.2466    -2.6678
H      1.3844     1.3622    -3.4839
H     -0.7997    -0.2115    -3.1872
H     -1.3035     1.5046    -3.3915
H     -3.7037     0.8837    -3.3105
H     -5.6357     0.2484    -1.9000
H     -5.2687    -0.6072     0.3857
H     -3.8182    -1.4546     2.0475
H     -2.1600    -1.8295     1.5598
H     -4.3437     0.5335     3.3280
H     -3.0609     1.7763     3.6225
H     -3.7268     1.5767     1.9818
H     -1.1226    -1.3246     3.6388
H     -1.5340     0.1610     4.5401
H     -2.7786    -1.1411     4.3443
44
{"conf": 2, "E": 73.79, "rms": -1.0, "geom": "OH", "total_charge": 0, "CA_charge": 2, "smiles": "C[C:1]#[5N:2]->[Ru+2:3]1(<-[3C-:4]#[O+:5])(<-[4H-:6])(<-[6H-:7])<-[1N:8]([CH3:9])([CH3:10])[CH2:11][c:12]2[cH:13][cH:14][cH:15][c:16]([CH2:17][N:18]([CH3:19])[CH3:20])[2n:21]->12", "smiles3D": "C([C:1]#[5N:2]->[Ru+2:3]1(<-[3C-:4]#[O+:5])(<-[4H-:6])(<-[6H-:7])<-[1N:8]([C:9]([H:25])([H:26])[H:27])([C:10]([H:28])([H:29])[H:30])[C:11]([H:31])([H:32])[c:12]2[c:13]([H:33])[c:14]([H:34])[c:15]([H:35])[c:16]([C:17]([N:18]([C:19]([H:38])([H:39])[H:40])[C:20]([H:41])([H:42])[H:43])([H:36])[H:37])[2n:21]->12)([H:22])([H:23])[H:24]", "smiles3Dx": "C([C:1]#[5N:2]->[Ru+2:3]1(<-[3C-:4]#[O+:5])(<-[4H-:6])(<-[6H-:7])<-[1N:8]([C:9]([H:25])([H:26])[H:27])([C:10]([H:28])([H:29])[H:30])[C:11]([H:31])([H:32])[c:12]2[c:13]([H:33])[c:14]([H:34])[c:15]([H:35])[c:16]([C:17]([N:18]([C:19]([H:38])([H:39])[H:40])[C:20]([H:41])([H:42])[H:43])([H:36])[H:37])[2n:21]->12)([H:22])([H:23])[H:24]", "dummies": []}
C      3.9736     1.1008     2.5211
C      2.7745     0.7686     1.7532
N      1.7659     0.4884     1.1103
Ru     0.0000     0.0000     0.0000
C     -1.8442    -0.3277    -1.0512
O     -2.8804    -0.5113    -1.6400
H      0.7000     0.6163    -1.4091
H     -0.5637     1.5347     0.3823
N      0.7767    -2.0005    -0.3772
C      2.0131    -1.8787    -1.0501
C     -0.1333    -2.7367    -1.1733
C      0.9296    -2.6002     0.9189
C     -0.2028    -2.2151     1.8529
C     -0.6115    -3.0845     2.8702
C     -1.6570    -2.7084     3.7072
C     -2.2656    -1.4673     3.5382
C     -1.8036    -0.5910     2.5412
C     -2.4591     0.7658     2.3898
N     -1.9928     1.7820     3.3675
C     -0.5323     1.9654     3.3787
C     -2.4915     1.5340     4.7300
N     -0.7807    -0.9895     1.7215
H      3.6788     1.5863     3.4741
H      4.6089     1.7946     1.9331
H      4.5415     0.1729     2.7386
H      1.8651    -1.4051    -2.0461
H      2.7112    -1.2432    -0.4688
H      2.4829    -2.8795    -1.1953
H      0.2674    -3.7527    -1.3996
H     -0.3162    -2.2077    -2.1345
H     -1.1047    -2.8524    -0.6445
H      0.9726    -3.7125     0.8322
H      1.8794    -2.2606     1.3914
H     -0.1383    -4.0499     2.9997
H     -2.0003    -3.3807     4.4829
H     -3.0949    -1.1950     4.1784
H     -3.5596     0.6371     2.4907
H     -2.3527     1.1506     1.3648
H     -0.1828     2.3286     2.3948
H     -0.0021     1.0257     3.6460
H     -0.2506     2.7469     4.1172
H     -3.5812     1.3172     4.7193
H     -2.3477     2.4444     5.3501
H     -1.9498     0.6929     5.2141
