44
{"conf": 0, "E": 130.16, "rms": -1.0, "geom": "OH", "total_charge": 0, "CA_charge": 2, "smiles": "C[C:1]#[5N:2]->[Ru+2:3]1(<-[3H-:4])(<-[4H-:5])(<-[6C-:6]#[O+:7])<-[1N:8]([CH3:9])([CH3:10])[CH2:11][c:12]2[cH:13][cH:14][cH:15][c:16]([n:17]2)[CH2:18][2N:19]->1([CH3:20])[CH3:21]", "smiles3D": "C([C:1]#[5N:2]->[Ru+2:3]1(<-[3H-:4])(<-[4H-:5])(<-[6C-:6]#[O+:7])<-[1N:8]([C:9]([H:25])([H:26])[H:27])([C:10]([H:28])([H:29])[H:30])[C:11]([H:31])([H:32])[c:12]2[c:13]([H:33])[c:14]([H:34])[c:15]([H:35])[c:16]([n:17]2)[C:18]([H:36])([H:37])[2N:19]->1([C:20]([H:38])([H:39])[H:40])[C:21]([H:41])([H:42])[H:43])([H:22])([H:23])[H:24]", "smiles3Dx": "C([C:1]#[5N:2]->[Ru+2:3]1(<-[3H-:4])(<-[4H-:5])(<-[6C-:6]#[O+:7])<-[1N:8]([C:9]([H:25])([H:26])[H:27])([C:10]([H:28])([H:29])[H:30])[C:11]([H:31])([H:32])[c:12]2[c:13]([H:33])[c:14]([H:34])[c:15]([H:35])[c:16]([n:17]2)[C:18]([H:36])([H:37])[2N:19]->1([C:20]([H:38])([H:39])[H:40])[C:21]([H:41])([H:42])[H:43])([H:22])([H:23])[H:24]", "dummies": []}
C     -2.7704    -3.9310     0.6157
C     -1.9331    -2.7484     0.4228
N     -1.2319    -1.7511     0.2692
Ru     0.0000     0.0000     0.0000
H      1.0197     1.2873    -0.3970
H     -0.5977     0.0468    -1.5756
C      1.3796    -1.3269    -0.9738
O      2.1517    -2.0719    -1.5246
N     -1.6571     1.5256     0.4142
C     -1.9632     2.0477    -0.8789
C     -1.1781     2.6245     1.1963
C     -2.8872     0.9767     0.9481
C     -2.5783     0.1565     2.1213
C     -3.5007    -0.5356     2.9159
C     -3.0055    -1.4583     3.8552
C     -1.6215    -1.6942     3.9438
C     -0.7711    -0.9577     3.1093
N     -1.2799    -0.0754     2.2594
C      0.6560    -1.2097     2.8881
N      1.1861    -0.2245     1.9674
C      2.4982    -0.6634     1.6042
C      1.3615     1.0511     2.5986
H     -2.1439    -4.8435     0.5422
H     -3.5582    -3.9576    -0.1648
H     -3.2438    -3.8866     1.6181
H     -2.7187     2.8686    -0.8265
H     -1.0375     2.4458    -1.3524
H     -2.3727     1.2520    -1.5391
H     -1.1956     2.3931     2.2751
H     -0.1383     2.8635     0.8994
H     -1.8011     3.5393     1.0521
H     -3.3900     0.3219     0.1987
H     -3.5938     1.7876     1.2451
H     -4.5659    -0.3928     2.7881
H     -3.6913    -2.0205     4.4753
H     -1.2302    -2.4494     4.6131
H      1.1885    -1.1721     3.8680
H      0.7563    -2.2369     2.4670
H      2.9126     0.0062     0.8176
H      2.4775    -1.6993     1.2057
H      3.1962    -0.6592     2.4761
H      0.4513     1.3734     3.1262
H      2.1808     1.0320     3.3563
H      1.6156     1.8110     1.8324
44
{"conf": 1, "E": 127.52, "rms": -1.0, "geom": "OH", "total_charge": 0, "CA_charge": 2, "smiles": "C[C:1]#[5N:2]->[Ru+2:3]1(<-[3H-:4])(<-[4H-:5])(<-[6C-:6]#[O+:7])<-[1N:8]([CH3:9])([CH3:10])[CH2:11][c:12]2[cH:13][cH:14][cH:15][c:16]([n:17]2)[CH2:18][2N:19]->1([CH3:20])[CH3:21]", "smiles3D": "C([C:1]#[5N:2]->[Ru+2:3]1(<-[3H-:4])(<-[4H-:5])(<-[6C-:6]#[O+:7])<-[1N:8]([C:9]([H:25])([H:26])[H:27])([C:10]([H:28])([H:29])[H:30])[C:11]([H:31])([H:32])[c:12]2[c:13]([H:33])[c:14]([H:34])[c:15]([H:35])[c:16]([n:17]2)[C:18]([H:36])([H:37])[2N:19]->1([C:20]([H:38])([H:39])[H:40])[C:21]([H:41])([H:42])[H:43])([H:22])([H:23])[H:24]", "smiles3Dx": "C([C:1]#[5N:2]->[Ru+2:3]1(<-[3H-:4])(<-[4H-:5])(<-[6C-:6]#[O+:7])<-[1N:8]([C:9]([H:25])([H:26])[H:27])([C:10]([H:28])([H:29])[H:30])[C:11]([H:31])([H:32])[c:12]2[c:13]([H:33])[c:14]([H:34])[c:15]([H:35])[c:16]([n:17]2)[C:18]([H:36])([H:37])[2N:19]->1([C:20]([H:38])([H:39])[H:40])[C:21]([H:41])([H:42])[H:43])([H:22])([H:23])[H:24]", "dummies": []}
C     -3.2219     2.4325    -2.6619
C     -2.2468     1.6963    -1.8585
N     -1.4284     1.0787    -1.1816
Ru     0.0000     0.0000     0.0000
H      1.1803    -0.9522     0.7610
H      1.1162     0.2257    -1.2424
C     -0.4259    -1.7374    -1.1854
O     -0.6618    -2.7125    -1.8547
N      0.8513     1.9717     0.7962
C      1.3704     2.6268    -0.3634
C     -0.1546     2.8328     1.3411
C      1.9594     1.7952     1.7138
C      1.5794     0.8257     2.7489
C      2.4078     0.3422     3.7692
C      1.9590    -0.7569     4.5239
C      0.7313    -1.3683     4.2109
C     -0.0348    -0.8211     3.1739
N      0.4082     0.2453     2.5188
C     -1.2102    -1.4447     2.5495
N     -1.6792    -0.6125     1.4595
C     -2.4078     0.5241     1.9441
C     -2.6206    -1.3918     0.7111
H     -4.2393     2.0395    -2.4593
H     -3.1814     3.5089    -2.3964
H     -2.9840     2.3074    -3.7382
H      0.5648     2.7629    -1.1168
H      1.7952     3.6289    -0.1135
H      2.1793     2.0250    -0.8300
H     -0.3884     2.5724     2.3879
H     -1.0778     2.7554     0.7391
H      0.1707     3.9005     1.3407
H      2.2374     2.7597     2.2010
H      2.8549     1.3923     1.1853
H      3.3822     0.7773     3.9505
H      2.5807    -1.1629     5.3111
H      0.4073    -2.2586     4.7343
H     -2.0032    -1.5832     3.3219
H     -0.8994    -2.4476     2.1753
H     -2.6357     1.2093     1.1052
H     -3.3724     0.2246     2.4188
H     -1.8408     1.0764     2.7071
H     -2.1884    -2.3677     0.4102
H     -2.9156    -0.8443    -0.2094
H     -3.5425    -1.6107     1.3020
44
{"conf": 2, "E": 145.08, "rms": -1.0, "geom": "OH", "total_charge": 0, "CA_charge": 2, "smiles": "C[C:1]#[5N:2]->[Ru+2:3]1(<-[3H-:4])(<-[4H-:5])(<-[6C-:6]#[O+:7])<-[1N:8]([CH3:9])([CH3:10])[CH2:11][c:12]2[cH:13][cH:14][cH:15][c:16]([n:17]2)[CH2:18][2N:19]->1([CH3:20])[CH3:21]", "smiles3D": "C([C:1]#[5N:2]->[Ru+2:3]1(<-[3H-:4])(<-[4H-:5])(<-[6C-:6]#[O+:7])<-[1N:8]([C:9]([H:25])([H:26])[H:27])([C:10]([H:28])([H:29])[H:30])[C:11]([H:31])([H:32])[c:12]2[c:13]([H:33])[c:14]([H:34])[c:15]([H:35])[c:16]([n:17]2)[C:18]([H:36])([H:37])[2N:19]->1([C:20]([H:38])([H:39])[H:40])[C:21]([H:41])([H:42])[H:43])([H:22])([H:23])[H:24]", "smiles3Dx": "C([C:1]#[5N:2]->[Ru+2:3]1(<-[3H-:4])(<-[4H-:5])(<-[6C-:6]#[O+:7])<-[1N:8]([C:9]([H:25])([H:26])[H:27])([C:10]([H:28])([H:29])[H:30])[C:11]([H:31])([H:32])[c:12]2[c:13]([H:33])[c:14]([H:34])[c:15]([H:35])[c:16]([n:17]2)[C:18]([H:36])([H:37])[2N:19]->1([C:20]([H:38])([H:39])[H:40])[C:21]([H:41])([H:42])[H:43])([H:22])([H:23])[H:24]", "dummies": []}
C     -1.9822     3.3144    -2.9137
C     -1.3816     2.3133    -2.0333
N     -0.8776     1.4732    -1.2917
Ru     0.0000     0.0000     0.0000
H      0.7179    -1.2538     0.8835
H      1.3649     0.0313    -0.9915
C     -0.5561    -1.5049    -1.4269
O     -0.8645    -2.3496    -2.2304
N      1.1858     1.5794     1.1562
C      1.2992     2.6890     0.2789
C      2.4868     1.0027     1.3103
C      0.7429     2.0769     2.4407
C      0.3631     0.9828     3.3482
C     -0.0184     1.1991     4.6799
C     -0.9275     0.3083     5.2679
C     -1.5228    -0.6876     4.4808
C     -1.0940    -0.8343     3.1530
N     -0.1150    -0.0640     2.6852
C     -1.9753    -1.2853     2.0618
N     -2.0240    -0.2743     1.0209
C     -2.9425    -0.7595     0.0325
C     -2.5567     0.9843     1.4579
H     -1.8793     2.9881    -3.9690
H     -1.4653     4.2861    -2.7744
H     -3.0572     3.4280    -2.6643
H      1.6213     2.3487    -0.7292
H      2.0420     3.4327     0.6558
H      0.3170     3.1992     0.1724
H      2.9245     0.7395     0.3246
H      3.1902     1.7021     1.8214
H      2.4195     0.0717     1.9112
H      1.5392     2.6862     2.9323
H     -0.1452     2.7342     2.3075
H      0.3065     2.0818     5.2159
H     -1.2637     0.4691     6.2839
H     -2.3586    -1.2588     4.8643
H     -2.9946    -1.4912     2.4693
H     -1.5563    -2.2310     1.6493
H     -2.8673    -0.1433    -0.8881
H     -2.7263    -1.8156    -0.2388
H     -3.9985    -0.7203     0.3949
H     -1.9233     1.4602     2.2106
H     -3.5679     0.8515     1.9098
H     -2.6442     1.6853     0.5999
44
{"conf": 3, "E": 130.16, "rms": -1.0, "geom": "OH", "total_charge": 0, "CA_charge": 2, "smiles": "C[C:1]#[5N:2]->[Ru+2:3]1(<-[3H-:4])(<-[4H-:5])(<-[6C-:6]#[O+:7])<-[1N:8]([CH3:9])([CH3:10])[CH2:11][c:12]2[cH:13][cH:14][cH:15][c:16]([n:17]2)[CH2:18][2N:19]->1([CH3:20])[CH3:21]", "smiles3D": "C([C:1]#[5N:2]->[Ru+2:3]1(<-[3H-:4])(<-[4H-:5])(<-[6C-:6]#[O+:7])<-[1N:8]([C:9]([H:25])([H:26])[H:27])([C:10]([H:28])([H:29])[H:30])[C:11]([H:31])([H:32])[c:12]2[c:13]([H:33])[c:14]([H:34])[c:15]([H:35])[c:16]([n:17]2)[C:18]([H:36])([H:37])[2N:19]->1([C:20]([H:38])([H:39])[H:40])[C:21]([H:41])([H:42])[H:43])([H:22])([H:23])[H:24]", "smiles3Dx": "C([C:1]#[5N:2]->[Ru+2:3]1(<-[3H-:4])(<-[4H-:5])(<-[6C-:6]#[O+:7])<-[1N:8]([C:9]([H:25])([H:26])[H:27])([C:10]([H:28])([H:29])[H:30])[C:11]([H:31])([H:32])[c:12]2[c:13]([H:33])[c:14]([H:34])[c:15]([H:35])[c:16]([n:17]2)[C:18]([H:36])([H:37])[2N:19]->1([C:20]([H:38])([H:39])[H:40])[C:21]([H:41])([H:42])[H:43])([H:22])([H:23])[H:24]", "dummies": []}
C     -2.0189     1.8522    -4.0001
C     -1.4167     1.2958    -2.7898
N     -0.9028     0.8255    -1.7776
Ru     0.0000     0.0000     0.0000
H      0.5359    -0.5766     1.4949
H     -1.5292    -0.6092     0.3642
C     -0.8546     1.6889     1.0147
O     -1.3387     2.6351     1.5846
N      0.3600    -2.0910    -0.8621
C      1.6266    -2.6181    -0.4542
C     -0.6383    -2.8913    -0.2287
C      0.1559    -2.2171    -2.2911
C      0.9362    -1.1875    -2.9809
C      1.0064    -0.9880    -4.3652
C      1.6148     0.1900    -4.8352
C      2.0914     1.1461    -3.9198
C      1.9792     0.8648    -2.5523
N      1.4257    -0.2732    -2.1544
C      2.2026     1.8088    -1.4532
N      2.0011     1.1354    -0.1862
C      3.1012     0.2744     0.1378
C      1.9894     2.1495     0.8226
H     -2.2295     2.9304    -3.8462
H     -1.3162     1.7298    -4.8499
H     -2.9648     1.3170    -4.2220
H      2.4425    -2.2666    -1.1088
H      1.6426    -3.7337    -0.4891
H      1.8412    -2.3012     0.5850
H     -1.6574    -2.5582    -0.5242
H     -0.5403    -3.9697    -0.5022
H     -0.5514    -2.7954     0.8771
H      0.4747    -3.2223    -2.6556
H     -0.9164    -2.0649    -2.5558
H      0.5738    -1.7013    -5.0549
H      1.6729     0.3824    -5.8984
H      2.5000     2.0872    -4.2646
H      1.4769     2.6462    -1.5743
H      3.2374     2.2192    -1.5304
H      4.0279     0.8517     0.3695
H      2.8428    -0.3374     1.0256
H      3.3496    -0.4004    -0.6949
H      1.7356     1.6957     1.8068
H      1.2362     2.9323     0.5942
H      2.9787     2.6599     0.9130
