38
{"conf": 0, "E": 85.23, "rms": -1.0, "geom": "OH", "total_charge": 0, "CA_charge": 2, "smiles": "C[1N:1]1([CH3:2])->[Ru+2:3]2(<-[3H-:4])(<-[4H-:5])(<-[5C-:6]#[O+:7])<-[2n:8]3[c:9]([cH:10][cH:11][cH:12][c:13]3[CH2:14][6N:15]->2([CH3:16])[CH3:17])[CH2:18]1", "smiles3D": "C([1N:1]1([C:2]([H:22])([H:23])[H:24])->[Ru+2:3]2(<-[3H-:4])(<-[4H-:5])(<-[5C-:6]#[O+:7])<-[2n:8]3[c:9]([c:10]([H:25])[c:11]([H:26])[c:12]([H:27])[c:13]3[C:14]([H:28])([H:29])[6N:15]->2([C:16]([H:30])([H:31])[H:32])[C:17]([H:33])([H:34])[H:35])[C:18]1([H:36])[H:37])([H:19])([H:20])[H:21]", "smiles3Dx": "C([1N:1]1([C:2]([H:22])([H:23])[H:24])->[Ru+2:3]2(<-[3H-:4])(<-[4H-:5])(<-[5C-:6]#[O+:7])<-[2n:8]3[c:9]([c:10]([H:25])[c:11]([H:26])[c:12]([H:27])[c:13]3[C:14]([H:28])([H:29])[6N:15]->2([C:16]([H:30])([H:31])[H:32])[C:17]([H:33])([H:34])[H:35])[C:18]1([H:36])[H:37])([H:19])([H:20])[H:21]", "dummies": []}
C      1.8945    -0.6910     2.1718
N      1.8411    -0.8896     0.7745
C      2.9043    -0.2009     0.1500
Ru     0.0000     0.0000     0.0000
H      0.9187     0.7992    -1.1725
H     -0.0148     1.4056     0.9379
C     -1.1680    -1.0245     1.4853
O     -1.8233    -1.6007     2.3176
N      0.0058    -1.6665    -1.0902
C      0.9159    -2.6017    -0.7615
C      0.8282    -3.8689    -1.3505
C     -0.2387    -4.1259    -2.2337
C     -1.2240    -3.1463    -2.4659
C     -1.0822    -1.8982    -1.8475
C     -2.2099    -0.8785    -1.8049
N     -1.7876     0.3881    -1.1978
C     -2.7811     0.9554    -0.3695
C     -1.4025     1.3156    -2.1909
C      1.8504    -2.3082     0.4020
H      1.7617     0.3885     2.4050
H      1.0890    -1.2565     2.6821
H      2.8736    -1.0311     2.5822
H      2.8846    -0.3838    -0.9476
H      2.8007     0.8933     0.3241
H      3.8907    -0.5364     0.5474
H      1.5344    -4.6503    -1.1002
H     -0.3359    -5.1033    -2.6880
H     -2.0923    -3.3733    -3.0714
H     -2.5838    -0.7197    -2.8441
H     -3.0419    -1.3304    -1.2176
H     -3.1229     0.2266     0.3928
H     -3.6646     1.2711    -0.9715
H     -2.3697     1.8432     0.1595
H     -0.9507     2.2141    -1.7148
H     -0.6447     0.8589    -2.8658
H     -2.2769     1.6352    -2.8048
H      1.5168    -2.9356     1.2601
H      2.8779    -2.6428     0.1245
38
{"conf": 1, "E": 85.23, "rms": -1.0, "geom": "OH", "total_charge": 0, "CA_charge": 2, "smiles": "C[1N:1]1([CH3:2])->[Ru+2:3]2(<-[3H-:4])(<-[4H-:5])(<-[5C-:6]#[O+:7])<-[2n:8]3[c:9]([cH:10][cH:11][cH:12][c:13]3[CH2:14][6N:15]->2([CH3:16])[CH3:17])[CH2:18]1", "smiles3D": "C([1N:1]1([C:2]([H:22])([H:23])[H:24])->[Ru+2:3]2(<-[3H-:4])(<-[4H-:5])(<-[5C-:6]#[O+:7])<-[2n:8]3[c:9]([c:10]([H:25])[c:11]([H:26])[c:12]([H:27])[c:13]3[C:14]([H:28])([H:29])[6N:15]->2([C:16]([H:30])([H:31])[H:32])[C:17]([H:33])([H:34])[H:35])[C:18]1([H:36])[H:37])([H:19])([H:20])[H:21]", "smiles3Dx": "C([1N:1]1([C:2]([H:22])([H:23])[H:24])->[Ru+2:3]2(<-[3H-:4])(<-[4H-:5])(<-[5C-:6]#[O+:7])<-[2n:8]3[c:9]([c:10]([H:25])[c:11]([H:26])[c:12]([H:27])[c:13]3[C:14]([H:28])([H:29])[6N:15]->2([C:16]([H:30])([H:31])[H:32])[C:17]([H:33])([H:34])[H:35])[C:18]1([H:36])[H:37])([H:19])([H:20])[H:21]", "dummies": []}
C      0.0406     2.9052    -0.2361
N      0.9308     1.8784    -0.6212
C      2.1601     2.0283     0.0579
Ru     0.0000     0.0000     0.0000
H     -1.4320     0.8469     0.2990
H      0.3752     0.0650     1.6464
C      1.8186    -1.0773    -0.3900
O      2.8385    -1.6817    -0.6104
N     -0.4239    -0.0874    -1.9439
C      0.1621     0.8317    -2.7331
C      0.0691     0.6896    -4.1228
C     -0.6004    -0.4374    -4.6387
C     -1.1078    -1.4245    -3.7712
C     -0.9837    -1.2266    -2.3907
C     -1.2406    -2.3367    -1.3833
N     -1.1501    -1.8595     0.0006
C     -2.4292    -1.5313     0.5018
C     -0.5212    -2.7882     0.8591
C      1.0878     1.8459    -2.0791
H     -0.9167     2.8095    -0.7954
H     -0.1803     2.8265     0.8516
H      0.4728     3.9121    -0.4433
H      2.8847     1.2524    -0.2615
H      2.6063     3.0287    -0.1487
H      2.0011     1.9242     1.1538
H      0.5392     1.4018    -4.7890
H     -0.6704    -0.5765    -5.7096
H     -1.5406    -2.3342    -4.1675
H     -2.2444    -2.7779    -1.5902
H     -0.4832    -3.1325    -1.5683
H     -2.3316    -1.0379     1.4944
H     -3.0641    -2.4412     0.6135
H     -2.9406    -0.8262    -0.1907
H     -0.3681    -2.3317     1.8618
H     -1.1431    -3.7064     0.9716
H      0.4693    -3.0864     0.4603
H      0.8877     2.8484    -2.5261
H      2.1310     1.5635    -2.3495
