44
{"conf": 0, "E": 81.07, "rms": -1.0, "geom": "OH", "total_charge": 0, "CA_charge": 2, "smiles": "C[C:1]#[6N:2]->[Ru+2:3]1(<-[3H-:4])(<-[4H-:5])(<-[5C-:6]#[O+:7])<-[1N:8]([CH3:9])([CH3:10])[CH2:11][c:12]2[cH:13][cH:14][cH:15][c:16]([CH2:17][N:18]([CH3:19])[CH3:20])[2n:21]->12", "smiles3D": "C([C:1]#[6N:2]->[Ru+2:3]1(<-[3H-:4])(<-[4H-:5])(<-[5C-:6]#[O+:7])<-[1N:8]([C:9]([H:25])([H:26])[H:27])([C:10]([H:28])([H:29])[H:30])[C:11]([H:31])([H:32])[c:12]2[c:13]([H:33])[c:14]([H:34])[c:15]([H:35])[c:16]([C:17]([N:18]([C:19]([H:38])([H:39])[H:40])[C:20]([H:41])([H:42])[H:43])([H:36])[H:37])[2n:21]->12)([H:22])([H:23])[H:24]", "smiles3Dx": "C([C:1]#[6N:2]->[Ru+2:3]1(<-[3H-:4])(<-[4H-:5])(<-[5C-:6]#[O+:7])<-[1N:8]([C:9]([H:25])([H:26])[H:27])([C:10]([H:28])([H:29])[H:30])[C:11]([H:31])([H:32])[c:12]2[c:13]([H:33])[c:14]([H:34])[c:15]([H:35])[c:16]([C:17]([N:18]([C:19]([H:38])([H:39])[H:40])[C:20]([H:41])([H:42])[H:43])([H:36])[H:37])[2n:21]->12)([H:22])([H:23])[H:24]", "dummies": []}
C     -4.5926     0.7473     1.3129
C     -3.2028     0.5237     0.9168
N     -2.0359     0.3308     0.5838
Ru     0.0000     0.0000     0.0000
H     -0.3768     0.8245    -1.4270
H      0.4390     1.4673     0.7146
C      0.4004    -0.9855     1.8668
O      0.6262    -1.5322     2.9177
N      1.9837    -0.3182    -0.8166
C      2.5742     0.9482    -1.0045
C      2.7642    -1.1064     0.0602
C      1.7619    -0.9924    -2.0689
C      0.6382    -2.0082    -1.9757
C      0.5148    -3.0200    -2.9336
C     -0.5871    -3.8697    -2.8850
C     -1.5139    -3.7444    -1.8514
C     -1.3222    -2.7663    -0.8603
C     -2.1990    -2.7642     0.3772
N     -2.1828    -4.0264     1.1590
C     -0.8383    -4.5851     1.3739
C     -3.1330    -5.0519     0.6985
N     -0.3176    -1.8490    -1.0213
H     -4.6198     1.2149     2.3185
H     -5.0830     1.4189     0.5786
H     -5.1284    -0.2238     1.3417
H      2.7649     1.4389    -0.0239
H      1.8905     1.6016    -1.5885
H      3.5399     0.8561    -1.5541
H      2.8769    -0.5964     1.0420
H      2.2757    -2.0910     0.2295
H      3.7800    -1.2823    -0.3643
H      2.6923    -1.5088    -2.4055
H      1.4780    -0.2562    -2.8560
H      1.2435    -3.1240    -3.7279
H     -0.7169    -4.6334    -3.6410
H     -2.3640    -4.4080    -1.8315
H     -1.8537    -1.9858     1.0684
H     -3.2365    -2.4864     0.0910
H     -0.1476    -3.8007     1.7425
H     -0.4251    -5.0191     0.4379
H     -0.8824    -5.3823     2.1463
H     -4.0613    -4.5961     0.2927
H     -2.6835    -5.7205    -0.0655
H     -3.4282    -5.6828     1.5631
44
{"conf": 1, "E": 77.13, "rms": -1.0, "geom": "OH", "total_charge": 0, "CA_charge": 2, "smiles": "C[C:1]#[6N:2]->[Ru+2:3]1(<-[3H-:4])(<-[4H-:5])(<-[5C-:6]#[O+:7])<-[1N:8]([CH3:9])([CH3:10])[CH2:11][c:12]2[cH:13][cH:14][cH:15][c:16]([CH2:17][N:18]([CH3:19])[CH3:20])[2n:21]->12", "smiles3D": "C([C:1]#[6N:2]->[Ru+2:3]1(<-[3H-:4])(<-[4H-:5])(<-[5C-:6]#[O+:7])<-[1N:8]([C:9]([H:25])([H:26])[H:27])([C:10]([H:28])([H:29])[H:30])[C:11]([H:31])([H:32])[c:12]2[c:13]([H:33])[c:14]([H:34])[c:15]([H:35])[c:16]([C:17]([N:18]([C:19]([H:38])([H:39])[H:40])[C:20]([H:41])([H:42])[H:43])([H:36])[H:37])[2n:21]->12)([H:22])([H:23])[H:24]", "smiles3Dx": "C([C:1]#[6N:2]->[Ru+2:3]1(<-[3H-:4])(<-[4H-:5])(<-[5C-:6]#[O+:7])<-[1N:8]([C:9]([H:25])([H:26])[H:27])([C:10]([H:28])([H:29])[H:30])[C:11]([H:31])([H:32])[c:12]2[c:13]([H:33])[c:14]([H:34])[c:15]([H:35])[c:16]([C:17]([N:18]([C:19]([H:38])([H:39])[H:40])[C:20]([H:41])([H:42])[H:43])([H:36])[H:37])[2n:21]->12)([H:22])([H:23])[H:24]", "dummies": []}
C     -0.5840     2.5408     4.0725
C     -0.4035     1.7695     2.8434
N     -0.2457     1.1192     1.8125
Ru     0.0000     0.0000     0.0000
H     -0.7700    -1.3286     0.7070
H     -1.4957     0.5925    -0.5169
C      0.9742     1.7379    -0.7953
O      1.5230     2.7144    -1.2418
N      0.2971    -1.0713    -1.8569
C     -0.3798    -0.3973    -2.8969
C     -0.2358    -2.3691    -1.6836
C      1.7163    -1.1070    -2.0732
C      2.4752    -1.3049    -0.7750
C      3.7405    -1.9030    -0.7761
C      4.3801    -2.1434     0.4361
C      3.7421    -1.8143     1.6296
C      2.4791    -1.2002     1.5986
C      1.7543    -0.9517     2.8965
N      2.2205     0.2419     3.6583
C      3.0233    -0.1359     4.8320
C      2.9322     1.2621     2.8640
N      1.9112    -0.8884     0.3921
H     -1.4485     2.1373     4.6385
H     -0.7711     3.6041     3.8176
H      0.3325     2.4649     4.6933
H     -1.4745    -0.3780    -2.6982
H     -0.2021    -0.9051    -3.8733
H     -0.0262     0.6513    -2.9746
H      0.2920    -2.8952    -0.8583
H     -0.1309    -2.9718    -2.6157
H     -1.3146    -2.3052    -1.4191
H      2.0643    -0.1495    -2.5226
H      1.9785    -1.9303    -2.7798
H      4.2134    -2.2001    -1.7039
H      5.3526    -2.6181     0.4526
H      4.2181    -2.0575     2.5706
H      0.6693    -0.8848     2.7158
H      1.8382    -1.8763     3.5122
H      3.9538    -0.6616     4.5275
H      3.2943     0.7671     5.4209
H      2.4324    -0.7952     5.5034
H      3.9511     0.9168     2.5819
H      2.3684     1.5114     1.9423
H      3.0245     2.1989     3.4539
44
{"conf": 2, "E": 69.91, "rms": -1.0, "geom": "OH", "total_charge": 0, "CA_charge": 2, "smiles": "C[C:1]#[6N:2]->[Ru+2:3]1(<-[3H-:4])(<-[4H-:5])(<-[5C-:6]#[O+:7])<-[1N:8]([CH3:9])([CH3:10])[CH2:11][c:12]2[cH:13][cH:14][cH:15][c:16]([CH2:17][N:18]([CH3:19])[CH3:20])[2n:21]->12", "smiles3D": "C([C:1]#[6N:2]->[Ru+2:3]1(<-[3H-:4])(<-[4H-:5])(<-[5C-:6]#[O+:7])<-[1N:8]([C:9]([H:25])([H:26])[H:27])([C:10]([H:28])([H:29])[H:30])[C:11]([H:31])([H:32])[c:12]2[c:13]([H:33])[c:14]([H:34])[c:15]([H:35])[c:16]([C:17]([N:18]([C:19]([H:38])([H:39])[H:40])[C:20]([H:41])([H:42])[H:43])([H:36])[H:37])[2n:21]->12)([H:22])([H:23])[H:24]", "smiles3Dx": "C([C:1]#[6N:2]->[Ru+2:3]1(<-[3H-:4])(<-[4H-:5])(<-[5C-:6]#[O+:7])<-[1N:8]([C:9]([H:25])([H:26])[H:27])([C:10]([H:28])([H:29])[H:30])[C:11]([H:31])([H:32])[c:12]2[c:13]([H:33])[c:14]([H:34])[c:15]([H:35])[c:16]([C:17]([N:18]([C:19]([H:38])([H:39])[H:40])[C:20]([H:41])([H:42])[H:43])([H:36])[H:37])[2n:21]->12)([H:22])([H:23])[H:24]", "dummies": []}
C      1.2171    -2.3384    -4.0525
C      0.8491    -1.6338    -2.8252
N      0.5428    -1.0350    -1.7967
Ru     0.0000     0.0000     0.0000
H     -1.0242     1.0183    -0.8787
H     -1.2757    -1.0844     0.2282
C      1.3290    -1.3396     1.0204
O      2.0767    -2.0919     1.5942
N     -0.4251     1.0474     1.8470
C     -1.3140     2.1008     1.5350
C     -1.0238     0.1530     2.7605
C      0.8375     1.5465     2.3262
C      1.7294     2.0011     1.1858
C      2.7633     2.9178     1.4067
C      3.5456     3.3304     0.3295
C      3.2554     2.8698    -0.9550
C      2.1860     1.9753    -1.1453
C      1.7646     1.5889    -2.5396
N      1.9526     2.6983    -3.5002
C      0.9106     3.7263    -3.3257
C      1.9086     2.1830    -4.8779
N      1.5338     1.4763    -0.0529
H      1.9941    -3.0967    -3.8247
H      0.3218    -2.8397    -4.4740
H      1.6152    -1.6104    -4.7892
H     -2.2406     1.6929     1.0735
H     -0.8434     2.7985     0.8078
H     -1.5921     2.6734     2.4503
H     -1.2169     0.6594     3.7347
H     -1.9890    -0.2247     2.3561
H     -0.3619    -0.7188     2.9407
H      1.3831     0.7505     2.8819
H      0.6762     2.4009     3.0257
H      2.9576     3.3075     2.3981
H      4.3541     4.0331     0.4841
H      3.8375     3.2340    -1.7921
H      2.3910     0.7182    -2.8329
H      0.6978     1.2845    -2.5383
H      0.9332     4.1315    -2.2917
H     -0.1037     3.3154    -3.5287
H      1.0982     4.5790    -4.0131
H      2.7427     1.4679    -5.0446
H      2.0422     3.0133    -5.6047
H      0.9434     1.6686    -5.0858
