44
{"conf": 0, "E": 66.78, "rms": -1.0, "geom": "OH", "total_charge": 0, "CA_charge": 2, "smiles": "C[C:1]#[5N:2]->[Ru+2:3]1(<-[3H-:4])(<-[4C-:5]#[O+:6])(<-[6H-:7])<-[1N:8]([CH3:9])([CH3:10])[CH2:11][c:12]2[cH:13][cH:14][cH:15][c:16]([CH2:17][N:18]([CH3:19])[CH3:20])[2n:21]->12", "smiles3D": "C([C:1]#[5N:2]->[Ru+2:3]1(<-[3H-:4])(<-[4C-:5]#[O+:6])(<-[6H-:7])<-[1N:8]([C:9]([H:25])([H:26])[H:27])([C:10]([H:28])([H:29])[H:30])[C:11]([H:31])([H:32])[c:12]2[c:13]([H:33])[c:14]([H:34])[c:15]([H:35])[c:16]([C:17]([N:18]([C:19]([H:38])([H:39])[H:40])[C:20]([H:41])([H:42])[H:43])([H:36])[H:37])[2n:21]->12)([H:22])([H:23])[H:24]", "smiles3Dx": "C([C:1]#[5N:2]->[Ru+2:3]1(<-[3H-:4])(<-[4C-:5]#[O+:6])(<-[6H-:7])<-[1N:8]([C:9]([H:25])([H:26])[H:27])([C:10]([H:28])([H:29])[H:30])[C:11]([H:31])([H:32])[c:12]2[c:13]([H:33])[c:14]([H:34])[c:15]([H:35])[c:16]([C:17]([N:18]([C:19]([H:38])([H:39])[H:40])[C:20]([H:41])([H:42])[H:43])([H:36])[H:37])[2n:21]->12)([H:22])([H:23])[H:24]", "dummies": []}
C      2.4314    -2.5574     3.3062
C      1.6987    -1.7821     2.3061
N      1.0828    -1.1323     1.4648
Ru     0.0000     0.0000     0.0000
H     -0.9078     0.9163    -1.0921
C      1.3045     1.6658     0.3406
O      2.0388     2.6029     0.5325
H     -1.0081     0.5547     1.2271
N      1.1430    -0.7891    -1.6813
C      2.1812    -1.6141    -1.1956
C      1.6756     0.2906    -2.4226
C      0.2030    -1.5432    -2.4730
C     -0.8246    -2.2546    -1.6175
C     -1.4650    -3.4106    -2.0789
C     -2.4389    -4.0116    -1.2831
C     -2.7661    -3.4545    -0.0469
C     -2.1161    -2.2850     0.3809
C     -2.4685    -1.6831     1.7167
N     -3.3360    -0.4958     1.5615
C     -4.6766    -0.8748     1.0793
C     -3.4641     0.1969     2.8546
N     -1.1843    -1.7018    -0.4306
H      3.1627    -3.2186     2.7975
H      1.7182    -3.1745     3.8903
H      2.9686    -1.8670     3.9884
H      2.8173    -1.0442    -0.4834
H      1.7585    -2.4942    -0.6630
H      2.8224    -1.9801    -2.0314
H      2.5003     0.7888    -1.8666
H      2.0745    -0.0627    -3.4024
H      0.8806     1.0431    -2.6117
H      0.7374    -2.2945    -3.1027
H     -0.3549    -0.8622    -3.1574
H     -1.2122    -3.8400    -3.0403
H     -2.9395    -4.9088    -1.6234
H     -3.5208    -3.9282     0.5687
H     -2.9586    -2.4424     2.3691
H     -1.5214    -1.4135     2.2297
H     -4.6139    -1.2897     0.0517
H     -5.3328     0.0204     1.0187
H     -5.1524    -1.6254     1.7493
H     -4.0768     1.1168     2.7380
H     -3.9361    -0.4597     3.6197
H     -2.4663     0.5177     3.2235
44
{"conf": 1, "E": 66.31, "rms": -1.0, "geom": "OH", "total_charge": 0, "CA_charge": 2, "smiles": "C[C:1]#[5N:2]->[Ru+2:3]1(<-[3H-:4])(<-[4C-:5]#[O+:6])(<-[6H-:7])<-[1N:8]([CH3:9])([CH3:10])[CH2:11][c:12]2[cH:13][cH:14][cH:15][c:16]([CH2:17][N:18]([CH3:19])[CH3:20])[2n:21]->12", "smiles3D": "C([C:1]#[5N:2]->[Ru+2:3]1(<-[3H-:4])(<-[4C-:5]#[O+:6])(<-[6H-:7])<-[1N:8]([C:9]([H:25])([H:26])[H:27])([C:10]([H:28])([H:29])[H:30])[C:11]([H:31])([H:32])[c:12]2[c:13]([H:33])[c:14]([H:34])[c:15]([H:35])[c:16]([C:17]([N:18]([C:19]([H:38])([H:39])[H:40])[C:20]([H:41])([H:42])[H:43])([H:36])[H:37])[2n:21]->12)([H:22])([H:23])[H:24]", "smiles3Dx": "C([C:1]#[5N:2]->[Ru+2:3]1(<-[3H-:4])(<-[4C-:5]#[O+:6])(<-[6H-:7])<-[1N:8]([C:9]([H:25])([H:26])[H:27])([C:10]([H:28])([H:29])[H:30])[C:11]([H:31])([H:32])[c:12]2[c:13]([H:33])[c:14]([H:34])[c:15]([H:35])[c:16]([C:17]([N:18]([C:19]([H:38])([H:39])[H:40])[C:20]([H:41])([H:42])[H:43])([H:36])[H:37])[2n:21]->12)([H:22])([H:23])[H:24]", "dummies": []}
C     -4.3004     1.0158     1.9638
C     -3.0033     0.7055     1.3650
N     -1.9108     0.4484     0.8652
Ru     0.0000     0.0000     0.0000
H      1.5301    -0.3809    -0.6080
C     -0.6773    -1.9901    -0.4164
O     -1.0589    -3.1098    -0.6506
H      0.5192    -0.5144     1.5142
N     -0.5474     0.7866    -1.9598
C     -0.3004    -0.2053    -2.9373
C     -1.9137     1.1446    -1.9568
C      0.2921     1.9385    -2.1714
C      0.5661     2.6977    -0.8898
C      0.8904     4.0591    -0.9240
C      1.2277     4.7086     0.2611
C      1.2637     3.9938     1.4572
C      0.9562     2.6229     1.4576
C      1.0180     1.8509     2.7512
N     -0.3269     1.4285     3.1916
C     -0.2124     0.4631     4.2967
C     -1.1234     2.5866     3.6369
N      0.6128     2.0126     0.2826
H     -5.1102     0.6114     1.3225
H     -4.3604     0.5566     2.9719
H     -4.4115     2.1161     2.0521
H     -0.3569     0.2292    -3.9630
H      0.7131    -0.6344    -2.7874
H     -1.0416    -1.0316    -2.8647
H     -2.0951     1.9715    -1.2352
H     -2.5340     0.2722    -1.6559
H     -2.2393     1.4806    -2.9691
H      1.2801     1.6221    -2.5807
H     -0.1749     2.6309    -2.9126
H      0.8862     4.6079    -1.8575
H      1.4726     5.7628     0.2512
H      1.5320     4.5048     2.3736
H      1.5121     2.4555     3.5467
H      1.6845     0.9772     2.5946
H     -1.2212     0.1130     4.6053
H      0.3011     0.9139     5.1755
H      0.3551    -0.4342     3.9699
H     -2.1223     2.2535     3.9927
H     -0.6145     3.1384     4.4585
H     -1.3028     3.2803     2.7887
44
{"conf": 2, "E": 74.67, "rms": -1.0, "geom": "OH", "total_charge": 0, "CA_charge": 2, "smiles": "C[C:1]#[5N:2]->[Ru+2:3]1(<-[3H-:4])(<-[4C-:5]#[O+:6])(<-[6H-:7])<-[1N:8]([CH3:9])([CH3:10])[CH2:11][c:12]2[cH:13][cH:14][cH:15][c:16]([CH2:17][N:18]([CH3:19])[CH3:20])[2n:21]->12", "smiles3D": "C([C:1]#[5N:2]->[Ru+2:3]1(<-[3H-:4])(<-[4C-:5]#[O+:6])(<-[6H-:7])<-[1N:8]([C:9]([H:25])([H:26])[H:27])([C:10]([H:28])([H:29])[H:30])[C:11]([H:31])([H:32])[c:12]2[c:13]([H:33])[c:14]([H:34])[c:15]([H:35])[c:16]([C:17]([N:18]([C:19]([H:38])([H:39])[H:40])[C:20]([H:41])([H:42])[H:43])([H:36])[H:37])[2n:21]->12)([H:22])([H:23])[H:24]", "smiles3Dx": "C([C:1]#[5N:2]->[Ru+2:3]1(<-[3H-:4])(<-[4C-:5]#[O+:6])(<-[6H-:7])<-[1N:8]([C:9]([H:25])([H:26])[H:27])([C:10]([H:28])([H:29])[H:30])[C:11]([H:31])([H:32])[c:12]2[c:13]([H:33])[c:14]([H:34])[c:15]([H:35])[c:16]([C:17]([N:18]([C:19]([H:38])([H:39])[H:40])[C:20]([H:41])([H:42])[H:43])([H:36])[H:37])[2n:21]->12)([H:22])([H:23])[H:24]", "dummies": []}
C      2.2886    -0.0073    -4.2569
C      1.5981    -0.0079    -2.9678
N      1.0172    -0.0061    -1.8854
Ru     0.0000     0.0000     0.0000
H     -0.7965    -0.0579     1.4852
C      1.8818    -0.0345     1.0255
O      2.9407    -0.0538     1.6022
H      0.0297    -1.6830    -0.0678
N     -0.1400     2.1658    -0.0733
C     -0.8472     2.5798     1.0772
C      1.1500     2.7439    -0.0988
C     -0.8704     2.4666    -1.2779
C     -1.9610     1.4499    -1.5557
C     -3.0095     1.7510    -2.4313
C     -3.9656     0.7755    -2.7052
C     -3.9011    -0.4587    -2.0594
C     -2.8660    -0.7106    -1.1428
C     -2.9198    -1.9544    -0.2736
N     -3.9620    -1.9190     0.7820
C     -3.8313    -0.7661     1.6858
C     -5.3362    -2.0424     0.2723
N     -1.8610     0.2092    -1.0100
H      2.3838     1.0351    -4.6242
H      3.2983    -0.4507    -4.1357
H      1.7069    -0.6055    -4.9880
H     -1.8681     2.1383     1.0816
H     -0.9377     3.6905     1.1121
H     -0.3173     2.2352     1.9926
H      1.6653     2.6117     0.8781
H      1.0852     3.8352    -0.3180
H      1.7669     2.2603    -0.8841
H     -1.3300     3.4814    -1.2088
H     -0.1822     2.4642    -2.1545
H     -3.0722     2.7203    -2.9099
H     -4.7701     0.9839    -3.3985
H     -4.6624    -1.1999    -2.2617
H     -3.0723    -2.8434    -0.9238
H     -1.9594    -2.1242     0.2289
H     -3.9541     0.1950     1.1407
H     -4.5998    -0.8195     2.4870
H     -2.8434    -0.7891     2.1869
H     -6.0083    -2.3531     1.1001
H     -5.3993    -2.8270    -0.5119
H     -5.7104    -1.0766    -0.1301
