44
{"conf": 0, "E": 73.77, "rms": -1.0, "geom": "OH", "total_charge": 0, "CA_charge": 2, "smiles": "C[C:1]#[6N:2]->[Ru+2:3]1(<-[3H-:4])(<-[4C-:5]#[O+:6])(<-[5H-:7])<-[1N:8]([CH3:9])([CH3:10])[CH2:11][c:12]2[cH:13][cH:14][cH:15][c:16]([CH2:17][N:18]([CH3:19])[CH3:20])[2n:21]->12", "smiles3D": "C([C:1]#[6N:2]->[Ru+2:3]1(<-[3H-:4])(<-[4C-:5]#[O+:6])(<-[5H-:7])<-[1N:8]([C:9]([H:25])([H:26])[H:27])([C:10]([H:28])([H:29])[H:30])[C:11]([H:31])([H:32])[c:12]2[c:13]([H:33])[c:14]([H:34])[c:15]([H:35])[c:16]([C:17]([N:18]([C:19]([H:38])([H:39])[H:40])[C:20]([H:41])([H:42])[H:43])([H:36])[H:37])[2n:21]->12)([H:22])([H:23])[H:24]", "smiles3Dx": "C([C:1]#[6N:2]->[Ru+2:3]1(<-[3H-:4])(<-[4C-:5]#[O+:6])(<-[5H-:7])<-[1N:8]([C:9]([H:25])([H:26])[H:27])([C:10]([H:28])([H:29])[H:30])[C:11]([H:31])([H:32])[c:12]2[c:13]([H:33])[c:14]([H:34])[c:15]([H:35])[c:16]([C:17]([N:18]([C:19]([H:38])([H:39])[H:40])[C:20]([H:41])([H:42])[H:43])([H:36])[H:37])[2n:21]->12)([H:22])([H:23])[H:24]", "dummies": []}
C     -1.7441    -2.6584     3.6353
C     -1.2046    -1.8960     2.5090
N     -0.7535    -1.2405     1.5727
Ru     0.0000     0.0000     0.0000
H     -0.9356    -0.7988    -1.1589
C     -1.6399     1.3300     0.3727
O     -2.5624     2.0778     0.5827
H      0.9195     0.7892     1.1787
N      0.9268     1.2842    -1.4762
C      0.4377     0.9101    -2.7463
C      0.6276     2.6364    -1.1968
C      2.3362     1.0346    -1.3456
C      2.6280    -0.4338    -1.1173
C      3.8379    -0.9937    -1.5411
C      4.0192    -2.3689    -1.4420
C      2.9832    -3.1672    -0.9637
C      1.7899    -2.5725    -0.5114
C      0.6016    -3.4579    -0.2106
N      0.5717    -3.9691     1.1799
C     -0.5764    -4.8828     1.3277
C      1.8014    -4.6929     1.5484
N      1.6827    -1.2071    -0.5183
H     -0.9320    -3.2527     4.1021
H     -2.1664    -1.9588     4.3855
H     -2.5430    -3.3382     3.2748
H     -0.6699     1.0102    -2.7701
H      0.6935    -0.1502    -2.9623
H      0.8739     1.5534    -3.5454
H      0.8040     2.8432    -0.1191
H      1.2726     3.3152    -1.8024
H     -0.4364     2.8666    -1.4260
H      2.8745     1.3784    -2.2610
H      2.7466     1.5952    -0.4739
H      4.6132    -0.3769    -1.9783
H      4.9380    -2.8222    -1.7911
H      3.0957    -4.2436    -0.9865
H      0.6008    -4.3072    -0.9327
H     -0.3266    -2.8884    -0.4170
H     -0.4586    -5.7881     0.6904
H     -1.5217    -4.3717     1.0447
H     -0.6797    -5.2023     2.3868
H      2.0345    -5.4957     0.8143
H      2.6547    -3.9876     1.6229
H      1.6953    -5.1517     2.5557
44
{"conf": 1, "E": 71.66, "rms": -1.0, "geom": "OH", "total_charge": 0, "CA_charge": 2, "smiles": "C[C:1]#[6N:2]->[Ru+2:3]1(<-[3H-:4])(<-[4C-:5]#[O+:6])(<-[5H-:7])<-[1N:8]([CH3:9])([CH3:10])[CH2:11][c:12]2[cH:13][cH:14][cH:15][c:16]([CH2:17][N:18]([CH3:19])[CH3:20])[2n:21]->12", "smiles3D": "C([C:1]#[6N:2]->[Ru+2:3]1(<-[3H-:4])(<-[4C-:5]#[O+:6])(<-[5H-:7])<-[1N:8]([C:9]([H:25])([H:26])[H:27])([C:10]([H:28])([H:29])[H:30])[C:11]([H:31])([H:32])[c:12]2[c:13]([H:33])[c:14]([H:34])[c:15]([H:35])[c:16]([C:17]([N:18]([C:19]([H:38])([H:39])[H:40])[C:20]([H:41])([H:42])[H:43])([H:36])[H:37])[2n:21]->12)([H:22])([H:23])[H:24]", "smiles3Dx": "C([C:1]#[6N:2]->[Ru+2:3]1(<-[3H-:4])(<-[4C-:5]#[O+:6])(<-[5H-:7])<-[1N:8]([C:9]([H:25])([H:26])[H:27])([C:10]([H:28])([H:29])[H:30])[C:11]([H:31])([H:32])[c:12]2[c:13]([H:33])[c:14]([H:34])[c:15]([H:35])[c:16]([C:17]([N:18]([C:19]([H:38])([H:39])[H:40])[C:20]([H:41])([H:42])[H:43])([H:36])[H:37])[2n:21]->12)([H:22])([H:23])[H:24]", "dummies": []}
C     -4.2473    -0.8914     2.1216
C     -2.9692    -0.6111     1.4687
N     -1.8971    -0.3730     0.9170
Ru     0.0000     0.0000     0.0000
H      0.5634     0.4702     1.5227
C      0.5125    -2.0370     0.4300
O      0.8003    -3.1828     0.6719
H     -0.5785    -0.4887    -1.5085
N      1.9472     0.4944    -0.8082
C      1.9088     0.2647    -2.2005
C      2.9413    -0.2984    -0.1919
C      2.1362     1.8845    -0.4987
C      0.8593     2.6817    -0.6632
C      0.9086     4.0522    -0.9407
C     -0.2791     4.7486    -1.1371
C     -1.4927     4.0673    -1.0945
C     -1.5125     2.6897    -0.8118
C     -2.8150     1.9387    -0.9498
N     -2.7103     0.8100    -1.8983
C     -3.9831     0.0701    -1.9361
C     -2.3920     1.2850    -3.2583
N     -0.3369     2.0515    -0.5117
H     -4.0878    -1.0068     3.2133
H     -4.6755    -1.8276     1.7082
H     -4.9478    -0.0514     1.9359
H      2.8964     0.4865    -2.6676
H      1.1362     0.9071    -2.6769
H      1.6477    -0.7976    -2.4021
H      2.8842    -1.3538    -0.5392
H      3.9585     0.0941    -0.4257
H      2.7980    -0.2865     0.9102
H      2.9274     2.3209    -1.1541
H      2.4654     1.9999     0.5601
H      1.8568     4.5694    -1.0187
H     -0.2573     5.8072    -1.3614
H     -2.4067     4.6056    -1.3129
H     -3.6247     2.6296    -1.2812
H     -3.1257     1.5987     0.0534
H     -3.8837    -0.8267    -2.5848
H     -4.2574    -0.2911    -0.9245
H     -4.8108     0.7072    -2.3215
H     -1.3800     1.7411    -3.2831
H     -2.3709     0.4319    -3.9707
H     -3.1368     2.0328    -3.6117
44
{"conf": 2, "E": 77.67, "rms": -1.0, "geom": "OH", "total_charge": 0, "CA_charge": 2, "smiles": "C[C:1]#[6N:2]->[Ru+2:3]1(<-[3H-:4])(<-[4C-:5]#[O+:6])(<-[5H-:7])<-[1N:8]([CH3:9])([CH3:10])[CH2:11][c:12]2[cH:13][cH:14][cH:15][c:16]([CH2:17][N:18]([CH3:19])[CH3:20])[2n:21]->12", "smiles3D": "C([C:1]#[6N:2]->[Ru+2:3]1(<-[3H-:4])(<-[4C-:5]#[O+:6])(<-[5H-:7])<-[1N:8]([C:9]([H:25])([H:26])[H:27])([C:10]([H:28])([H:29])[H:30])[C:11]([H:31])([H:32])[c:12]2[c:13]([H:33])[c:14]([H:34])[c:15]([H:35])[c:16]([C:17]([N:18]([C:19]([H:38])([H:39])[H:40])[C:20]([H:41])([H:42])[H:43])([H:36])[H:37])[2n:21]->12)([H:22])([H:23])[H:24]", "smiles3Dx": "C([C:1]#[6N:2]->[Ru+2:3]1(<-[3H-:4])(<-[4C-:5]#[O+:6])(<-[5H-:7])<-[1N:8]([C:9]([H:25])([H:26])[H:27])([C:10]([H:28])([H:29])[H:30])[C:11]([H:31])([H:32])[c:12]2[c:13]([H:33])[c:14]([H:34])[c:15]([H:35])[c:16]([C:17]([N:18]([C:19]([H:38])([H:39])[H:40])[C:20]([H:41])([H:42])[H:43])([H:36])[H:37])[2n:21]->12)([H:22])([H:23])[H:24]", "dummies": []}
C      0.7870    -1.1336     4.6341
C      0.5501    -0.7930     3.2318
N      0.3511    -0.5032     2.0545
Ru     0.0000     0.0000     0.0000
H      1.4574     0.8465    -0.0990
C      1.0267    -1.7914    -0.5770
O      1.6042    -2.7991    -0.9013
H     -1.4482    -0.8632     0.1233
N     -0.5875     0.5483    -2.0126
C     -0.7182    -0.6125    -2.8057
C      0.4054     1.4065    -2.5315
C     -1.8560     1.2201    -1.8666
C     -1.8976     2.0855    -0.6235
C     -2.8363     3.1143    -0.4911
C     -2.8328     3.8855     0.6716
C     -1.8451     3.6808     1.6375
C     -0.8793     2.6806     1.4353
C      0.3778     2.6598     2.2835
N      1.2758     3.8225     2.0765
C      1.6255     4.0438     0.6642
C      0.8138     5.0645     2.7150
N     -1.0375     1.8140     0.3901
H     -0.0511    -1.7554     5.0104
H      0.8550    -0.2023     5.2333
H      1.7369    -1.7001     4.7217
H     -1.3263    -1.3684    -2.2635
H     -1.2208    -0.3737    -3.7720
H      0.2763    -1.0592    -3.0273
H      0.4836     2.3258    -1.9110
H      0.1677     1.7015    -3.5799
H      1.3930     0.8949    -2.5182
H     -2.0623     1.8561    -2.7601
H     -2.6786     0.4727    -1.7796
H     -3.5648     3.3063    -1.2689
H     -3.5664     4.6701     0.8041
H     -1.8206     4.3157     2.5123
H      0.9752     1.7691     2.0451
H      0.0992     2.5705     3.3561
H      2.0506     3.1183     0.2248
H      0.7391     4.3587     0.0712
H      2.4038     4.8329     0.5863
H      1.6800     5.7443     2.8589
H      0.0652     5.5943     2.0880
H      0.3848     4.8619     3.7197
44
{"conf": 3, "E": 74.76, "rms": -1.0, "geom": "OH", "total_charge": 0, "CA_charge": 2, "smiles": "C[C:1]#[6N:2]->[Ru+2:3]1(<-[3H-:4])(<-[4C-:5]#[O+:6])(<-[5H-:7])<-[1N:8]([CH3:9])([CH3:10])[CH2:11][c:12]2[cH:13][cH:14][cH:15][c:16]([CH2:17][N:18]([CH3:19])[CH3:20])[2n:21]->12", "smiles3D": "C([C:1]#[6N:2]->[Ru+2:3]1(<-[3H-:4])(<-[4C-:5]#[O+:6])(<-[5H-:7])<-[1N:8]([C:9]([H:25])([H:26])[H:27])([C:10]([H:28])([H:29])[H:30])[C:11]([H:31])([H:32])[c:12]2[c:13]([H:33])[c:14]([H:34])[c:15]([H:35])[c:16]([C:17]([N:18]([C:19]([H:38])([H:39])[H:40])[C:20]([H:41])([H:42])[H:43])([H:36])[H:37])[2n:21]->12)([H:22])([H:23])[H:24]", "smiles3Dx": "C([C:1]#[6N:2]->[Ru+2:3]1(<-[3H-:4])(<-[4C-:5]#[O+:6])(<-[5H-:7])<-[1N:8]([C:9]([H:25])([H:26])[H:27])([C:10]([H:28])([H:29])[H:30])[C:11]([H:31])([H:32])[c:12]2[c:13]([H:33])[c:14]([H:34])[c:15]([H:35])[c:16]([C:17]([N:18]([C:19]([H:38])([H:39])[H:40])[C:20]([H:41])([H:42])[H:43])([H:36])[H:37])[2n:21]->12)([H:22])([H:23])[H:24]", "dummies": []}
C     -1.6715     4.4675    -0.7842
C     -1.1537     3.1166    -0.5675
N     -0.7235     1.9811    -0.3795
Ru     0.0000     0.0000     0.0000
H      1.0551     0.6998     1.1202
C     -1.5105    -0.1769     1.5115
O     -2.3602    -0.2760     2.3614
H     -1.0675    -0.6706    -1.1263
N      0.9212    -1.9063     0.4515
C      0.7265    -2.2274     1.8133
C      0.3377    -2.8806    -0.3865
C      2.3182    -1.7126     0.1662
C      2.5251    -0.8864    -1.0863
C      3.6812    -1.0369    -1.8589
C      3.7666    -0.3803    -3.0827
C      2.6802     0.3605    -3.5443
C      1.5405     0.5135    -2.7313
C      0.2625     1.0180    -3.3571
N      0.5170     2.1370    -4.2904
C     -0.6589     2.3639    -5.1453
C      0.8496     3.3752    -3.5667
N      1.5479    -0.0231    -1.4714
H     -2.2586     4.4914    -1.7254
H     -2.3239     4.7542     0.0660
H     -0.8249     5.1806    -0.8578
H      1.3765    -3.0826     2.1125
H     -0.3325    -2.5051     2.0112
H      0.9794    -1.3482     2.4445
H     -0.7606    -2.9193    -0.2143
H      0.7689    -3.8884    -0.1840
H      0.5110    -2.6263    -1.4548
H      2.8115    -1.1731     1.0075
H      2.8262    -2.6988     0.0435
H      4.4861    -1.6849    -1.5351
H      4.6427    -0.5058    -3.7057
H      2.7097     0.7649    -4.5482
H     -0.4971     1.2928    -2.6137
H     -0.1634     0.1553    -3.9163
H     -0.4698     3.2073    -5.8443
H     -0.8582     1.4643    -5.7663
H     -1.5623     2.5923    -4.5362
H     -0.0252     3.7610    -3.0049
H      1.1790     4.1537    -4.2876
H      1.6904     3.2075    -2.8606
