44
{"conf": 0, "E": 70.95, "rms": -1.0, "geom": "OH", "total_charge": 0, "CA_charge": 2, "smiles": "C[C:1]#[4N:2]->[Ru+2:3]1(<-[3H-:4])(<-[5H-:5])(<-[6C-:6]#[O+:7])<-[1N:8]([CH3:9])([CH3:10])[CH2:11][c:12]2[cH:13][cH:14][cH:15][c:16]([CH2:17][N:18]([CH3:19])[CH3:20])[2n:21]->12", "smiles3D": "C([C:1]#[4N:2]->[Ru+2:3]1(<-[3H-:4])(<-[5H-:5])(<-[6C-:6]#[O+:7])<-[1N:8]([C:9]([H:25])([H:26])[H:27])([C:10]([H:28])([H:29])[H:30])[C:11]([H:31])([H:32])[c:12]2[c:13]([H:33])[c:14]([H:34])[c:15]([H:35])[c:16]([C:17]([N:18]([C:19]([H:38])([H:39])[H:40])[C:20]([H:41])([H:42])[H:43])([H:36])[H:37])[2n:21]->12)([H:22])([H:23])[H:24]", "smiles3Dx": "C([C:1]#[4N:2]->[Ru+2:3]1(<-[3H-:4])(<-[5H-:5])(<-[6C-:6]#[O+:7])<-[1N:8]([C:9]([H:25])([H:26])[H:27])([C:10]([H:28])([H:29])[H:30])[C:11]([H:31])([H:32])[c:12]2[c:13]([H:33])[c:14]([H:34])[c:15]([H:35])[c:16]([C:17]([N:18]([C:19]([H:38])([H:39])[H:40])[C:20]([H:41])([H:42])[H:43])([H:36])[H:37])[2n:21]->12)([H:22])([H:23])[H:24]", "dummies": []}
C     -2.2025     2.4981     3.5027
C     -1.5354     1.7427     2.4428
N     -0.9763     1.1070     1.5524
Ru     0.0000     0.0000     0.0000
H      0.5570    -1.1181     1.1389
H     -0.5344     1.1366    -1.1314
C      1.7831     1.1292     0.3746
O      2.7851     1.7653     0.5885
N     -1.6926    -1.2997    -0.3549
C     -2.4857    -0.7107    -1.3626
C     -2.4241    -1.4496     0.8427
C     -1.1273    -2.5542    -0.7800
C      0.0770    -2.3543    -1.6772
C      0.4775    -3.3499    -2.5753
C      1.5708    -3.1123    -3.4066
C      2.2090    -1.8720    -3.3749
C      1.7556    -0.8818    -2.4838
C      2.3159     0.5165    -2.5644
N      2.6304     0.9000    -3.9585
C      3.5150     2.0757    -3.9711
C      1.3990     1.2022    -4.7106
N      0.7865    -1.2009    -1.5734
H     -2.3925     3.5343     3.1547
H     -1.5547     2.5229     4.4029
H     -3.1663     2.0096     3.7538
H     -1.9026    -0.6123    -2.3045
H     -3.3925    -1.3266    -1.5655
H     -2.8067     0.3064    -1.0463
H     -1.7305    -1.6934     1.6760
H     -2.9622    -0.5110     1.1017
H     -3.1723    -2.2706     0.7462
H     -0.7896    -3.1426     0.1044
H     -1.8922    -3.1585    -1.3236
H     -0.0519    -4.2928    -2.6322
H      1.8986    -3.8736    -4.1026
H      3.0205    -1.6759    -4.0645
H      1.5907     1.2419    -2.1425
H      3.2392     0.5306    -1.9443
H      3.0469     2.9387    -3.4463
H      4.4806     1.8319    -3.4781
H      3.7497     2.3704    -5.0169
H      1.6462     1.4318    -5.7694
H      0.7222     0.3214    -4.7187
H      0.8563     2.0685    -4.2704
44
{"conf": 1, "E": 71.85, "rms": -1.0, "geom": "OH", "total_charge": 0, "CA_charge": 2, "smiles": "C[C:1]#[4N:2]->[Ru+2:3]1(<-[3H-:4])(<-[5H-:5])(<-[6C-:6]#[O+:7])<-[1N:8]([CH3:9])([CH3:10])[CH2:11][c:12]2[cH:13][cH:14][cH:15][c:16]([CH2:17][N:18]([CH3:19])[CH3:20])[2n:21]->12", "smiles3D": "C([C:1]#[4N:2]->[Ru+2:3]1(<-[3H-:4])(<-[5H-:5])(<-[6C-:6]#[O+:7])<-[1N:8]([C:9]([H:25])([H:26])[H:27])([C:10]([H:28])([H:29])[H:30])[C:11]([H:31])([H:32])[c:12]2[c:13]([H:33])[c:14]([H:34])[c:15]([H:35])[c:16]([C:17]([N:18]([C:19]([H:38])([H:39])[H:40])[C:20]([H:41])([H:42])[H:43])([H:36])[H:37])[2n:21]->12)([H:22])([H:23])[H:24]", "smiles3Dx": "C([C:1]#[4N:2]->[Ru+2:3]1(<-[3H-:4])(<-[5H-:5])(<-[6C-:6]#[O+:7])<-[1N:8]([C:9]([H:25])([H:26])[H:27])([C:10]([H:28])([H:29])[H:30])[C:11]([H:31])([H:32])[c:12]2[c:13]([H:33])[c:14]([H:34])[c:15]([H:35])[c:16]([C:17]([N:18]([C:19]([H:38])([H:39])[H:40])[C:20]([H:41])([H:42])[H:43])([H:36])[H:37])[2n:21]->12)([H:22])([H:23])[H:24]", "dummies": []}
C     -2.4737     3.8792    -1.4812
C     -1.7256     2.7052    -1.0329
N     -1.0958     1.7196    -0.6569
Ru     0.0000     0.0000     0.0000
H     -0.1256    -0.6750    -1.5447
H      0.0971     0.6762     1.5437
C     -1.8710    -0.9275     0.4606
O     -2.9332    -1.4436     0.7058
N      1.9126     0.8233    -0.5760
C      1.7362     1.7025    -1.6664
C      2.4483     1.5014     0.5402
C      2.7091    -0.3115    -0.9489
C      2.4749    -1.4947    -0.0319
C      3.4675    -2.4652     0.1414
C      3.2448    -3.5145     1.0261
C      2.0587    -3.5626     1.7536
C      1.0772    -2.5740     1.5595
C     -0.1178    -2.5478     2.4833
N     -0.2700    -1.2417     3.1578
C      0.8764    -0.9639     4.0434
C     -1.5073    -1.2338     3.9563
N      1.2756    -1.6138     0.6002
H     -3.2154     3.5745    -2.2479
H     -1.7723     4.6192    -1.9184
H     -3.0003     4.3342    -0.6172
H      1.2307     2.6401    -1.3456
H      1.1053     1.2153    -2.4407
H      2.7194     1.9691    -2.1197
H      3.4301     1.9658     0.2891
H      2.5930     0.7964     1.3877
H      1.7482     2.3004     0.8705
H      3.7926    -0.0437    -0.9322
H      2.4519    -0.6370    -1.9836
H      4.4074    -2.3999    -0.3926
H      4.0063    -4.2687     1.1773
H      1.9220    -4.3485     2.4861
H     -1.0178    -2.8129     1.8981
H     -0.0305    -3.3533     3.2491
H      0.7273     0.0000     4.5765
H      1.0155    -1.7741     4.7937
H      1.8081    -0.8557     3.4494
H     -1.6640    -0.2302     4.4073
H     -1.4705    -1.9949     4.7678
H     -2.3882    -1.4418     3.3144
44
{"conf": 2, "E": 71.85, "rms": -1.0, "geom": "OH", "total_charge": 0, "CA_charge": 2, "smiles": "C[C:1]#[4N:2]->[Ru+2:3]1(<-[3H-:4])(<-[5H-:5])(<-[6C-:6]#[O+:7])<-[1N:8]([CH3:9])([CH3:10])[CH2:11][c:12]2[cH:13][cH:14][cH:15][c:16]([CH2:17][N:18]([CH3:19])[CH3:20])[2n:21]->12", "smiles3D": "C([C:1]#[4N:2]->[Ru+2:3]1(<-[3H-:4])(<-[5H-:5])(<-[6C-:6]#[O+:7])<-[1N:8]([C:9]([H:25])([H:26])[H:27])([C:10]([H:28])([H:29])[H:30])[C:11]([H:31])([H:32])[c:12]2[c:13]([H:33])[c:14]([H:34])[c:15]([H:35])[c:16]([C:17]([N:18]([C:19]([H:38])([H:39])[H:40])[C:20]([H:41])([H:42])[H:43])([H:36])[H:37])[2n:21]->12)([H:22])([H:23])[H:24]", "smiles3Dx": "C([C:1]#[4N:2]->[Ru+2:3]1(<-[3H-:4])(<-[5H-:5])(<-[6C-:6]#[O+:7])<-[1N:8]([C:9]([H:25])([H:26])[H:27])([C:10]([H:28])([H:29])[H:30])[C:11]([H:31])([H:32])[c:12]2[c:13]([H:33])[c:14]([H:34])[c:15]([H:35])[c:16]([C:17]([N:18]([C:19]([H:38])([H:39])[H:40])[C:20]([H:41])([H:42])[H:43])([H:36])[H:37])[2n:21]->12)([H:22])([H:23])[H:24]", "dummies": []}
C      2.1113    -3.4685     2.6218
C      1.4720    -2.4190     1.8288
N      0.9361    -1.5375     1.1615
Ru     0.0000     0.0000     0.0000
H      0.8445     1.1592     0.8903
H     -0.8565    -1.1712    -0.8673
C     -1.6022    -0.0049     1.4164
O     -2.5046    -0.0253     2.2163
N      1.5137    -0.0461    -1.5408
C      2.0659    -1.3430    -1.6180
C      2.5014     0.9063    -1.2090
C      0.8224     0.2958    -2.7519
C     -0.2063     1.3857    -2.5293
C     -0.5919     2.2228    -3.5819
C     -1.5015     3.2458    -3.3382
C     -1.9831     3.4468    -2.0474
C     -1.5793     2.5900    -1.0077
C     -1.9735     2.9342     0.4094
N     -0.8005     3.0415     1.3019
C      0.0791     4.1526     0.8924
C     -1.2464     3.2669     2.6871
N     -0.7692     1.5218    -1.2978
H      2.9594    -3.8984     2.0501
H      2.4867    -3.0368     3.5723
H      1.3727    -4.2659     2.8437
H      1.2488    -2.0959    -1.6442
H      2.7076    -1.5571    -0.7349
H      2.6850    -1.4528    -2.5389
H      3.3212     0.9079    -1.9644
H      2.0565     1.9243    -1.1626
H      2.9342     0.6721    -0.2113
H      0.2824    -0.5947    -3.1494
H      1.5500     0.6316    -3.5289
H     -0.1806     2.0916    -4.5751
H     -1.8034     3.9069    -4.1403
H     -2.6417     4.2850    -1.8560
H     -2.6909     2.1727     0.7673
H     -2.5438     3.8920     0.4289
H      0.5167     3.9524    -0.1082
H     -0.4740     5.1179     0.8609
H      0.9330     4.2486     1.5976
H     -0.3719     3.2760     3.3728
H     -1.9124     2.4449     3.0221
H     -1.7943     4.2310     2.7844
44
{"conf": 3, "E": 70.95, "rms": -1.0, "geom": "OH", "total_charge": 0, "CA_charge": 2, "smiles": "C[C:1]#[4N:2]->[Ru+2:3]1(<-[3H-:4])(<-[5H-:5])(<-[6C-:6]#[O+:7])<-[1N:8]([CH3:9])([CH3:10])[CH2:11][c:12]2[cH:13][cH:14][cH:15][c:16]([CH2:17][N:18]([CH3:19])[CH3:20])[2n:21]->12", "smiles3D": "C([C:1]#[4N:2]->[Ru+2:3]1(<-[3H-:4])(<-[5H-:5])(<-[6C-:6]#[O+:7])<-[1N:8]([C:9]([H:25])([H:26])[H:27])([C:10]([H:28])([H:29])[H:30])[C:11]([H:31])([H:32])[c:12]2[c:13]([H:33])[c:14]([H:34])[c:15]([H:35])[c:16]([C:17]([N:18]([C:19]([H:38])([H:39])[H:40])[C:20]([H:41])([H:42])[H:43])([H:36])[H:37])[2n:21]->12)([H:22])([H:23])[H:24]", "smiles3Dx": "C([C:1]#[4N:2]->[Ru+2:3]1(<-[3H-:4])(<-[5H-:5])(<-[6C-:6]#[O+:7])<-[1N:8]([C:9]([H:25])([H:26])[H:27])([C:10]([H:28])([H:29])[H:30])[C:11]([H:31])([H:32])[c:12]2[c:13]([H:33])[c:14]([H:34])[c:15]([H:35])[c:16]([C:17]([N:18]([C:19]([H:38])([H:39])[H:40])[C:20]([H:41])([H:42])[H:43])([H:36])[H:37])[2n:21]->12)([H:22])([H:23])[H:24]", "dummies": []}
C     -2.3352     2.9957    -2.9889
C     -1.6290     2.0894    -2.0838
N     -1.0348     1.3276    -1.3248
Ru     0.0000     0.0000     0.0000
H     -1.2116    -1.1562    -0.2301
H      1.1940     1.1701     0.2503
C     -1.0679     0.8732     1.6407
O     -1.6695     1.3672     2.5618
N      1.2412    -0.8422    -1.5589
C      0.5780    -1.9766    -2.0735
C      1.4453     0.1254    -2.5658
C      2.4803    -1.1907    -0.9130
C      2.2537    -1.7478     0.4775
C      3.2034    -2.5784     1.0827
C      2.9406    -3.0969     2.3496
C      1.7178    -2.8319     2.9671
C      0.7720    -2.0214     2.3123
C     -0.6166    -1.8745     2.8831
N     -1.0741    -3.1210     3.5362
C     -2.2298    -2.8417     4.4030
C     -1.4452    -4.1344     2.5319
N      1.1233    -1.4008     1.1456
H     -2.3014     4.0265    -2.5804
H     -3.3914     2.6710    -3.0873
H     -1.8477     2.9763    -3.9853
H      1.1619    -2.4352    -2.9051
H      0.4370    -2.7369    -1.2743
H     -0.4254    -1.6875    -2.4571
H      1.7517     1.0878    -2.1022
H      2.2435    -0.2037    -3.2713
H      0.5124     0.3006    -3.1459
H      3.1262    -0.2882    -0.8089
H      3.0357    -1.9429    -1.5224
H      4.1301    -2.8226     0.5786
H      3.6667    -3.7357     2.8356
H      1.4989    -3.2857     3.9255
H     -1.3312    -1.6013     2.0801
H     -0.5753    -1.0455     3.6236
H     -2.5799    -3.7767     4.8917
H     -1.9376    -2.1411     5.2145
H     -3.0703    -2.3969     3.8242
H     -2.2956    -3.7897     1.9019
H     -0.5807    -4.3640     1.8732
H     -1.7310    -5.0828     3.0356
