44
{"conf": 0, "E": 145.43, "rms": -1.0, "geom": "OH", "total_charge": 0, "CA_charge": 2, "smiles": "C[C:1]#[6N:2]->[Ru+2:3]1(<-[3H-:4])(<-[4H-:5])(<-[5C-:6]#[O+:7])<-[1N:8]([CH3:9])([CH3:10])[CH2:11][c:12]2[cH:13][cH:14][cH:15][c:16]([n:17]2)[CH2:18][2N:19]->1([CH3:20])[CH3:21]", "smiles3D": "C([C:1]#[6N:2]->[Ru+2:3]1(<-[3H-:4])(<-[4H-:5])(<-[5C-:6]#[O+:7])<-[1N:8]([C:9]([H:25])([H:26])[H:27])([C:10]([H:28])([H:29])[H:30])[C:11]([H:31])([H:32])[c:12]2[c:13]([H:33])[c:14]([H:34])[c:15]([H:35])[c:16]([n:17]2)[C:18]([H:36])([H:37])[2N:19]->1([C:20]([H:38])([H:39])[H:40])[C:21]([H:41])([H:42])[H:43])([H:22])([H:23])[H:24]", "smiles3Dx": "C([C:1]#[6N:2]->[Ru+2:3]1(<-[3H-:4])(<-[4H-:5])(<-[5C-:6]#[O+:7])<-[1N:8]([C:9]([H:25])([H:26])[H:27])([C:10]([H:28])([H:29])[H:30])[C:11]([H:31])([H:32])[c:12]2[c:13]([H:33])[c:14]([H:34])[c:15]([H:35])[c:16]([n:17]2)[C:18]([H:36])([H:37])[2N:19]->1([C:20]([H:38])([H:39])[H:40])[C:21]([H:41])([H:42])[H:43])([H:22])([H:23])[H:24]", "dummies": []}
C     -3.0797     2.8237     2.4380
C     -2.1456     1.9694     1.7057
N     -1.3586     1.2518     1.0923
Ru     0.0000     0.0000     0.0000
H     -0.9357    -1.3103     0.5228
H     -1.1423     0.2862    -1.2090
C      1.0191     1.7798    -0.6438
O      1.5903     2.7790    -1.0040
N      0.9550    -1.2799    -1.6456
C      1.2798    -0.3869    -2.7034
C     -0.1113    -2.1208    -2.1001
C      2.1223    -2.0957    -1.3942
C      1.9619    -2.9181    -0.1859
C      2.9188    -3.8534     0.2321
C      3.0265    -4.1321     1.6017
C      2.2717    -3.3858     2.5174
C      1.3406    -2.4617     2.0193
N      1.1660    -2.3393     0.7065
C      0.9896    -1.2119     2.7119
N      1.3112    -0.0758     1.8654
C      2.7022     0.0216     1.5305
C      1.0122     1.0903     2.6418
H     -2.6606     3.0559     3.4386
H     -4.0485     2.2962     2.5559
H     -3.2376     3.7665     1.8750
H      1.5369    -0.9392    -3.6394
H      0.4198     0.2840    -2.9165
H      2.1500     0.2465    -2.4240
H     -0.4543    -2.7817    -1.2773
H     -0.9800    -1.5129    -2.4301
H      0.2059    -2.7618    -2.9567
H      2.3325    -2.7717    -2.2580
H      3.0151    -1.4470    -1.2509
H      3.6191    -4.2860    -0.4710
H      3.7773    -4.8262     1.9563
H      2.4762    -3.4563     3.5781
H     -0.1044    -1.2288     2.9195
H      1.5385    -1.1599     3.6835
H      3.3336    -0.0758     2.4447
H      2.9263     1.0011     1.0531
H      3.0052    -0.7615     0.8311
H      1.7557     1.2377     3.4628
H      1.0256     1.9919     1.9947
H      0.0074     1.0173     3.1116
44
{"conf": 1, "E": 127.72, "rms": -1.0, "geom": "OH", "total_charge": 0, "CA_charge": 2, "smiles": "C[C:1]#[6N:2]->[Ru+2:3]1(<-[3H-:4])(<-[4H-:5])(<-[5C-:6]#[O+:7])<-[1N:8]([CH3:9])([CH3:10])[CH2:11][c:12]2[cH:13][cH:14][cH:15][c:16]([n:17]2)[CH2:18][2N:19]->1([CH3:20])[CH3:21]", "smiles3D": "C([C:1]#[6N:2]->[Ru+2:3]1(<-[3H-:4])(<-[4H-:5])(<-[5C-:6]#[O+:7])<-[1N:8]([C:9]([H:25])([H:26])[H:27])([C:10]([H:28])([H:29])[H:30])[C:11]([H:31])([H:32])[c:12]2[c:13]([H:33])[c:14]([H:34])[c:15]([H:35])[c:16]([n:17]2)[C:18]([H:36])([H:37])[2N:19]->1([C:20]([H:38])([H:39])[H:40])[C:21]([H:41])([H:42])[H:43])([H:22])([H:23])[H:24]", "smiles3Dx": "C([C:1]#[6N:2]->[Ru+2:3]1(<-[3H-:4])(<-[4H-:5])(<-[5C-:6]#[O+:7])<-[1N:8]([C:9]([H:25])([H:26])[H:27])([C:10]([H:28])([H:29])[H:30])[C:11]([H:31])([H:32])[c:12]2[c:13]([H:33])[c:14]([H:34])[c:15]([H:35])[c:16]([n:17]2)[C:18]([H:36])([H:37])[2N:19]->1([C:20]([H:38])([H:39])[H:40])[C:21]([H:41])([H:42])[H:43])([H:22])([H:23])[H:24]", "dummies": []}
C     -4.1946    -2.4066    -0.0684
C     -2.9233    -1.6839    -0.0505
N     -1.8536    -1.0788    -0.0361
Ru     0.0000     0.0000     0.0000
H     -0.4655     0.6221    -1.5081
H     -1.0024     1.1711     0.6814
C      0.3100    -0.7673     1.9827
O      0.4840    -1.1982     3.0955
N      1.6470     1.5660     0.3101
C      1.1755     2.3792     1.3879
C      2.8907     0.9947     0.7351
C      1.8261     2.4458    -0.8285
C      1.9721     1.6390    -2.0462
C      2.0927     2.1320    -3.3514
C      1.9778     1.2220    -4.4178
C      1.6978    -0.1317    -4.1572
C      1.5920    -0.5402    -2.8216
N      1.7546     0.3452    -1.8463
C      1.0707    -1.8323    -2.3558
N      1.0351    -1.8499    -0.9058
C      0.2511    -2.9855    -0.5242
C      2.3417    -2.0632    -0.3542
H     -4.0199    -3.4524    -0.3947
H     -4.8921    -1.9104    -0.7740
H     -4.6349    -2.4053     0.9499
H      0.2117     2.8646     1.1249
H      1.0120     1.7590     2.2947
H      1.9042     3.1872     1.6401
H      3.4801     0.6208    -0.1203
H      2.7006     0.1566     1.4290
H      3.5291     1.7429     1.2629
H      2.7311     3.0868    -0.7048
H      0.9379     3.1063    -0.9647
H      2.2340     3.1887    -3.5382
H      2.0528     1.5724    -5.4389
H      1.5318    -0.8284    -4.9687
H      1.7167    -2.6505    -2.7538
H      0.0460    -1.9521    -2.7783
H      0.7445    -3.9449    -0.8126
H     -0.7426    -2.9694    -1.0138
H      0.0954    -2.9888     0.5747
H      3.0769    -1.3557    -0.7650
H      2.7213    -3.0877    -0.5815
H      2.3117    -1.9443     0.7456
44
{"conf": 2, "E": 132.12, "rms": -1.0, "geom": "OH", "total_charge": 0, "CA_charge": 2, "smiles": "C[C:1]#[6N:2]->[Ru+2:3]1(<-[3H-:4])(<-[4H-:5])(<-[5C-:6]#[O+:7])<-[1N:8]([CH3:9])([CH3:10])[CH2:11][c:12]2[cH:13][cH:14][cH:15][c:16]([n:17]2)[CH2:18][2N:19]->1([CH3:20])[CH3:21]", "smiles3D": "C([C:1]#[6N:2]->[Ru+2:3]1(<-[3H-:4])(<-[4H-:5])(<-[5C-:6]#[O+:7])<-[1N:8]([C:9]([H:25])([H:26])[H:27])([C:10]([H:28])([H:29])[H:30])[C:11]([H:31])([H:32])[c:12]2[c:13]([H:33])[c:14]([H:34])[c:15]([H:35])[c:16]([n:17]2)[C:18]([H:36])([H:37])[2N:19]->1([C:20]([H:38])([H:39])[H:40])[C:21]([H:41])([H:42])[H:43])([H:22])([H:23])[H:24]", "smiles3Dx": "C([C:1]#[6N:2]->[Ru+2:3]1(<-[3H-:4])(<-[4H-:5])(<-[5C-:6]#[O+:7])<-[1N:8]([C:9]([H:25])([H:26])[H:27])([C:10]([H:28])([H:29])[H:30])[C:11]([H:31])([H:32])[c:12]2[c:13]([H:33])[c:14]([H:34])[c:15]([H:35])[c:16]([n:17]2)[C:18]([H:36])([H:37])[2N:19]->1([C:20]([H:38])([H:39])[H:40])[C:21]([H:41])([H:42])[H:43])([H:22])([H:23])[H:24]", "dummies": []}
C      3.0583     3.5151    -1.3051
C      2.1342     2.4547    -0.9049
N      1.3579     1.5641    -0.5659
Ru     0.0000     0.0000     0.0000
H     -1.2671     1.1003    -0.1939
H      0.0054    -0.2108    -1.6729
C      1.7441    -1.2744     0.0179
O      2.7179    -1.9857     0.0279
N     -1.5563    -1.6824    -0.0279
C     -2.6906    -1.3555     0.7831
C     -2.0110    -1.6909    -1.3809
C     -1.0569    -3.0144     0.2531
C     -0.3112    -2.9974     1.5135
C      0.3173    -4.0913     2.1212
C      1.1920    -3.8408     3.1943
C      1.4493    -2.5167     3.5942
C      0.7769    -1.4836     2.9292
N     -0.0667    -1.7689     1.9472
C      1.0788    -0.0524     3.0237
N      0.1594     0.6989     2.1901
C     -1.1425     0.7873     2.7838
C      0.6584     2.0352     2.1317
H      3.9949     3.0630    -1.6913
H      3.2899     4.1533    -0.4277
H      2.5906     4.1330    -2.0990
H     -2.5183    -1.6067     1.8438
H     -3.6034    -1.9124     0.4629
H     -2.9013    -0.2710     0.7049
H     -2.8385    -2.4249    -1.5360
H     -1.1828    -1.9613    -2.0723
H     -2.3774    -0.6775    -1.6614
H     -0.3615    -3.3555    -0.5488
H     -1.8940    -3.7477     0.3352
H      0.1643    -5.0981     1.7544
H      1.7046    -4.6619     3.6780
H      2.1744    -2.3031     4.3689
H      1.0032     0.2649     4.0908
H      2.1300     0.0940     2.6827
H     -1.5191    -0.2014     3.0883
H     -1.8533     1.2274     2.0556
H     -1.1391     1.4265     3.6988
H      1.7081     2.0506     1.7714
H      0.6428     2.5306     3.1326
H      0.0384     2.6369     1.4301
