38
{"conf": 0, "E": 119.17, "rms": -1.0, "geom": "OH", "total_charge": 0, "CA_charge": 2, "smiles": "C[1N:1]1([CH3:2])->[Ru+2:3]2(<-[4H-:4])(<-[5C-:5]#[O+:6])(<-[6H-:7])<-[2N:8]([CH3:9])([CH3:10])[CH2:11][c:12]3[cH:13][cH:14][cH:15][c:16]([3n:17]->23)[CH2:18]1", "smiles3D": "C([1N:1]1([C:2]([H:22])([H:23])[H:24])->[Ru+2:3]2(<-[4H-:4])(<-[5C-:5]#[O+:6])(<-[6H-:7])<-[2N:8]([C:9]([H:25])([H:26])[H:27])([C:10]([H:28])([H:29])[H:30])[C:11]([H:31])([H:32])[c:12]3[c:13]([H:33])[c:14]([H:34])[c:15]([H:35])[c:16]([3n:17]->23)[C:18]1([H:36])[H:37])([H:19])([H:20])[H:21]", "smiles3Dx": "C([1N:1]1([C:2]([H:22])([H:23])[H:24])->[Ru+2:3]2(<-[4H-:4])(<-[5C-:5]#[O+:6])(<-[6H-:7])<-[2N:8]([C:9]([H:25])([H:26])[H:27])([C:10]([H:28])([H:29])[H:30])[C:11]([H:31])([H:32])[c:12]3[c:13]([H:33])[c:14]([H:34])[c:15]([H:35])[c:16]([3n:17]->23)[C:18]1([H:36])[H:37])([H:19])([H:20])[H:21]", "dummies": []}
C      2.2049    -1.3030    -1.5071
N      1.7435     0.0335    -1.3758
C      1.4967     0.5540    -2.6634
Ru     0.0000     0.0000     0.0000
H      1.0705    -0.8239     1.0137
C     -0.8344    -1.8355    -0.7317
O     -1.3036    -2.8672    -1.1436
H     -0.9957    -0.0242     1.3639
N     -1.5891     1.3233    -0.8109
C     -1.4455     1.6929    -2.1645
C     -2.8262     0.6442    -0.6544
C     -1.5461     2.4906     0.0523
C     -0.1102     2.8521     0.3589
C      0.3475     4.1757     0.2910
C      1.7233     4.3984     0.1244
C      2.5839     3.3101    -0.0882
C      2.0532     2.0148    -0.0080
N      0.7870     1.8439     0.4325
C      2.7286     0.8363    -0.6725
H      1.4926    -1.9048    -2.1145
H      2.2961    -1.7818    -0.5114
H      3.2044    -1.3311    -2.0024
H      0.6291     0.0433    -3.1190
H      1.3090     1.6397    -2.6182
H      2.3790     0.3959    -3.3287
H     -2.3556     2.2289    -2.5259
H     -1.3073     0.7931    -2.7909
H     -0.5885     2.3743    -2.2963
H     -3.6839     1.3348    -0.8348
H     -2.9178     0.2359     0.3723
H     -2.8997    -0.2047    -1.3702
H     -2.0530     2.2796     1.0220
H     -2.0589     3.3611    -0.4233
H     -0.3448     5.0078     0.2728
H      2.0994     5.4092     0.0355
H      3.6078     3.4781    -0.3974
H      3.2224     0.2381     0.1276
H      3.5207     1.2018    -1.3695
38
{"conf": 1, "E": 119.17, "rms": -1.0, "geom": "OH", "total_charge": 0, "CA_charge": 2, "smiles": "C[1N:1]1([CH3:2])->[Ru+2:3]2(<-[4H-:4])(<-[5C-:5]#[O+:6])(<-[6H-:7])<-[2N:8]([CH3:9])([CH3:10])[CH2:11][c:12]3[cH:13][cH:14][cH:15][c:16]([3n:17]->23)[CH2:18]1", "smiles3D": "C([1N:1]1([C:2]([H:22])([H:23])[H:24])->[Ru+2:3]2(<-[4H-:4])(<-[5C-:5]#[O+:6])(<-[6H-:7])<-[2N:8]([C:9]([H:25])([H:26])[H:27])([C:10]([H:28])([H:29])[H:30])[C:11]([H:31])([H:32])[c:12]3[c:13]([H:33])[c:14]([H:34])[c:15]([H:35])[c:16]([3n:17]->23)[C:18]1([H:36])[H:37])([H:19])([H:20])[H:21]", "smiles3Dx": "C([1N:1]1([C:2]([H:22])([H:23])[H:24])->[Ru+2:3]2(<-[4H-:4])(<-[5C-:5]#[O+:6])(<-[6H-:7])<-[2N:8]([C:9]([H:25])([H:26])[H:27])([C:10]([H:28])([H:29])[H:30])[C:11]([H:31])([H:32])[c:12]3[c:13]([H:33])[c:14]([H:34])[c:15]([H:35])[c:16]([3n:17]->23)[C:18]1([H:36])[H:37])([H:19])([H:20])[H:21]", "dummies": []}
C      0.4768     2.6597    -1.5294
N     -0.5866     1.8393    -1.0985
C     -1.4250     2.5968    -0.2386
Ru     0.0000     0.0000     0.0000
H     -1.6672    -0.1610     0.2164
C      0.2313     0.9400     1.9141
O      0.3617     1.4688     2.9899
H      0.0363    -1.5417     0.6886
N      2.1610    -0.3877    -0.3370
C      2.7230    -0.7651     0.9112
C      2.9026     0.6936    -0.8571
C      2.1753    -1.5143    -1.2536
C      1.0937    -1.3437    -2.2964
C      1.3403    -1.5696    -3.6581
C      0.4883    -0.9704    -4.5990
C     -0.5036    -0.0751    -4.1692
C     -0.6900     0.1020    -2.7909
N     -0.0387    -0.7062    -1.9252
C     -1.3490     1.3422    -2.2305
H      1.1465     2.8893    -0.6810
H      0.0906     3.6251    -1.9357
H      1.0492     2.1695    -2.3344
H     -0.8319     3.0479     0.5880
H     -1.9317     3.4174    -0.7997
H     -2.2046     1.9501     0.2121
H      2.7895     0.1129     1.5918
H      3.7476    -1.1855     0.7744
H      2.0941    -1.5339     1.4036
H      3.9944     0.4611    -0.8537
H      2.6136     0.9014    -1.9008
H      2.7432     1.5953    -0.2385
H      1.9693    -2.4646    -0.7094
H      3.1682    -1.6115    -1.7552
H      2.2171    -2.1134    -3.9862
H      0.6757    -1.1010    -5.6568
H     -1.0418     0.5279    -4.8895
H     -1.4320     2.1170    -3.0303
H     -2.3799     1.0605    -1.9150
