38
{"conf": 0, "E": 122.85, "rms": -1.0, "geom": "OH", "total_charge": 0, "CA_charge": 2, "smiles": "C[1N:1]1([CH3:2])->[Ru+2:3]2(<-[4H-:4])(<-[5H-:5])(<-[6C-:6]#[O+:7])<-[2N:8]([CH3:9])([CH3:10])[CH2:11][c:12]3[cH:13][cH:14][cH:15][c:16]([3n:17]->23)[CH2:18]1", "smiles3D": "C([1N:1]1([C:2]([H:22])([H:23])[H:24])->[Ru+2:3]2(<-[4H-:4])(<-[5H-:5])(<-[6C-:6]#[O+:7])<-[2N:8]([C:9]([H:25])([H:26])[H:27])([C:10]([H:28])([H:29])[H:30])[C:11]([H:31])([H:32])[c:12]3[c:13]([H:33])[c:14]([H:34])[c:15]([H:35])[c:16]([3n:17]->23)[C:18]1([H:36])[H:37])([H:19])([H:20])[H:21]", "smiles3Dx": "C([1N:1]1([C:2]([H:22])([H:23])[H:24])->[Ru+2:3]2(<-[4H-:4])(<-[5H-:5])(<-[6C-:6]#[O+:7])<-[2N:8]([C:9]([H:25])([H:26])[H:27])([C:10]([H:28])([H:29])[H:30])[C:11]([H:31])([H:32])[c:12]3[c:13]([H:33])[c:14]([H:34])[c:15]([H:35])[c:16]([3n:17]->23)[C:18]1([H:36])[H:37])([H:19])([H:20])[H:21]", "dummies": []}
C      1.0452     2.7527     0.0192
N     -0.0703     2.1317    -0.6034
C     -0.0057     2.3930    -1.9890
Ru     0.0000     0.0000     0.0000
H      0.1130     0.6798     1.5409
H      1.6778    -0.1469    -0.1384
C     -0.1542    -1.7898     1.1771
O     -0.2417    -2.7937     1.8396
N     -0.4760    -1.2582    -1.7788
C     -0.4541    -0.5779    -3.0172
C      0.4766    -2.3116    -1.8380
C     -1.8122    -1.7598    -1.5110
C     -2.6555    -0.6550    -0.9009
C     -3.9605    -0.3997    -1.3457
C     -4.5006     0.8787    -1.1342
C     -3.6944     1.8959    -0.5998
C     -2.3986     1.5671    -0.1780
N     -2.0263     0.2676    -0.1360
C     -1.3162     2.6182    -0.0360
H      1.9912     2.3453    -0.4034
H      1.0487     2.5605     1.1107
H      1.0282     3.8572    -0.1374
H      0.8516     1.8580    -2.4360
H     -0.9389     2.0920    -2.4902
H      0.1319     3.4841    -2.1802
H     -0.6010    -1.2890    -3.8649
H      0.5191    -0.0759    -3.1599
H     -1.2687     0.1620    -3.0692
H      0.2848    -2.9799    -2.7104
H      0.4504    -2.9345    -0.9260
H      1.4993    -1.8840    -1.9332
H     -2.2985    -2.1289    -2.4460
H     -1.7813    -2.6037    -0.7876
H     -4.5076    -1.1321    -1.9257
H     -5.4927     1.1120    -1.4982
H     -4.0396     2.9220    -0.6014
H     -1.1972     2.8306     1.0510
H     -1.6428     3.5612    -0.5366
38
{"conf": 1, "E": 122.85, "rms": -1.0, "geom": "OH", "total_charge": 0, "CA_charge": 2, "smiles": "C[1N:1]1([CH3:2])->[Ru+2:3]2(<-[4H-:4])(<-[5H-:5])(<-[6C-:6]#[O+:7])<-[2N:8]([CH3:9])([CH3:10])[CH2:11][c:12]3[cH:13][cH:14][cH:15][c:16]([3n:17]->23)[CH2:18]1", "smiles3D": "C([1N:1]1([C:2]([H:22])([H:23])[H:24])->[Ru+2:3]2(<-[4H-:4])(<-[5H-:5])(<-[6C-:6]#[O+:7])<-[2N:8]([C:9]([H:25])([H:26])[H:27])([C:10]([H:28])([H:29])[H:30])[C:11]([H:31])([H:32])[c:12]3[c:13]([H:33])[c:14]([H:34])[c:15]([H:35])[c:16]([3n:17]->23)[C:18]1([H:36])[H:37])([H:19])([H:20])[H:21]", "smiles3Dx": "C([1N:1]1([C:2]([H:22])([H:23])[H:24])->[Ru+2:3]2(<-[4H-:4])(<-[5H-:5])(<-[6C-:6]#[O+:7])<-[2N:8]([C:9]([H:25])([H:26])[H:27])([C:10]([H:28])([H:29])[H:30])[C:11]([H:31])([H:32])[c:12]3[c:13]([H:33])[c:14]([H:34])[c:15]([H:35])[c:16]([3n:17]->23)[C:18]1([H:36])[H:37])([H:19])([H:20])[H:21]", "dummies": []}
C      0.0305    -2.6346     1.6554
N      0.0216    -1.2354     1.8403
C     -1.1533    -0.8888     2.5593
Ru     0.0000     0.0000     0.0000
H     -0.2329     1.2447     1.1161
H     -1.6592    -0.1609    -0.2773
C      0.1541     1.6830    -1.3254
O      0.2413     2.6292    -2.0679
N      0.6323    -1.2734    -1.7182
C     -0.2722    -1.0433    -2.7904
C      0.6580    -2.6620    -1.4575
C      1.9689    -0.8025    -2.0356
C      2.7291    -0.5308    -0.7502
C      4.0473    -0.9739    -0.5717
C      4.5223    -1.1483     0.7377
C      3.6454    -0.9952     1.8230
C      2.3407    -0.5506     1.5681
N      2.0186    -0.1215     0.3267
C      1.2106    -0.7929     2.5485
H      1.0036    -2.9742     1.2673
H     -0.7762    -2.9303     0.9605
H     -0.1386    -3.1631     2.6239
H     -1.2151     0.2069     2.7147
H     -2.0551    -1.2051     1.9882
H     -1.1708    -1.3816     3.5601
H     -0.2762     0.0179    -3.0977
H     -0.0017    -1.6537    -3.6841
H     -1.3036    -1.3130    -2.4720
H     -0.3240    -2.9979    -1.0804
H      0.8840    -3.2377    -2.3867
H      1.4441    -2.9059    -0.7252
H      1.9280     0.1461    -2.6143
H      2.5250    -1.5526    -2.6481
H      4.6572    -1.2709    -1.4155
H      5.5245    -1.5219     0.9026
H      3.9490    -1.3017     2.8160
H      1.0178     0.1669     3.0799
H      1.5290    -1.5478     3.3069
