44
{"conf": 0, "E": 129.45, "rms": -1.0, "geom": "OH", "total_charge": 0, "CA_charge": 2, "smiles": "C[C:1]#[5N:2]->[Ru+2:3]1(<-[3C-:4]#[O+:5])(<-[4H-:6])(<-[6H-:7])<-[1N:8]([CH3:9])([CH3:10])[CH2:11][c:12]2[cH:13][cH:14][cH:15][c:16]([n:17]2)[CH2:18][2N:19]->1([CH3:20])[CH3:21]", "smiles3D": "C([C:1]#[5N:2]->[Ru+2:3]1(<-[3C-:4]#[O+:5])(<-[4H-:6])(<-[6H-:7])<-[1N:8]([C:9]([H:25])([H:26])[H:27])([C:10]([H:28])([H:29])[H:30])[C:11]([H:31])([H:32])[c:12]2[c:13]([H:33])[c:14]([H:34])[c:15]([H:35])[c:16]([n:17]2)[C:18]([H:36])([H:37])[2N:19]->1([C:20]([H:38])([H:39])[H:40])[C:21]([H:41])([H:42])[H:43])([H:22])([H:23])[H:24]", "smiles3Dx": "C([C:1]#[5N:2]->[Ru+2:3]1(<-[3C-:4]#[O+:5])(<-[4H-:6])(<-[6H-:7])<-[1N:8]([C:9]([H:25])([H:26])[H:27])([C:10]([H:28])([H:29])[H:30])[C:11]([H:31])([H:32])[c:12]2[c:13]([H:33])[c:14]([H:34])[c:15]([H:35])[c:16]([n:17]2)[C:18]([H:36])([H:37])[2N:19]->1([C:20]([H:38])([H:39])[H:40])[C:21]([H:41])([H:42])[H:43])([H:22])([H:23])[H:24]", "dummies": []}
C     -3.3765     1.4117    -3.1639
C     -2.3558     0.9851    -2.2076
N     -1.4994     0.6243    -1.4038
Ru     0.0000     0.0000     0.0000
C      1.6624    -0.2564     1.3573
O      2.5901    -0.3990     2.1146
H     -0.1353     1.5372     0.6814
H      1.1195     0.7686    -1.0007
N     -1.6417    -0.5990     1.4854
C     -2.6653    -1.3927     0.8690
C     -2.2424     0.6449     1.8423
C     -1.1732    -1.2053     2.7174
C     -0.2984    -2.3402     2.4029
C      0.3594    -3.1589     3.3295
C      1.3687    -4.0176     2.8568
C      1.7269    -3.9965     1.4963
C      1.0169    -3.1459     0.6398
N      0.0434    -2.3852     1.1222
C      1.3979    -2.7799    -0.7289
N      0.4177    -1.8603    -1.2749
C      0.9777    -1.3273    -2.4740
C     -0.7881    -2.5425    -1.6473
H     -3.9392     2.2711    -2.7451
H     -4.0744     0.5715    -3.3580
H     -2.8896     1.7151    -4.1134
H     -2.3659    -2.4513     0.7853
H     -3.6116    -1.3681     1.4603
H     -2.8833    -1.0110    -0.1445
H     -2.6086     1.1664     0.9312
H     -3.1031     0.5029     2.5397
H     -1.5029     1.3069     2.3433
H     -2.0270    -1.5657     3.3389
H     -0.5805    -0.4752     3.3166
H      0.1280    -3.1047     4.3855
H      1.9069    -4.6524     3.5484
H      2.5548    -4.5912     1.1324
H      2.4052    -2.3039    -0.6856
H      1.4685    -3.7066    -1.3466
H      0.2738    -0.5989    -2.9324
H      1.1943    -2.1291    -3.2207
H      1.9301    -0.7956    -2.2583
H     -0.6284    -3.1952    -2.5385
H     -1.1571    -3.1917    -0.8352
H     -1.5778    -1.8106    -1.8944
44
{"conf": 1, "E": 145.21, "rms": -1.0, "geom": "OH", "total_charge": 0, "CA_charge": 2, "smiles": "C[C:1]#[5N:2]->[Ru+2:3]1(<-[3C-:4]#[O+:5])(<-[4H-:6])(<-[6H-:7])<-[1N:8]([CH3:9])([CH3:10])[CH2:11][c:12]2[cH:13][cH:14][cH:15][c:16]([n:17]2)[CH2:18][2N:19]->1([CH3:20])[CH3:21]", "smiles3D": "C([C:1]#[5N:2]->[Ru+2:3]1(<-[3C-:4]#[O+:5])(<-[4H-:6])(<-[6H-:7])<-[1N:8]([C:9]([H:25])([H:26])[H:27])([C:10]([H:28])([H:29])[H:30])[C:11]([H:31])([H:32])[c:12]2[c:13]([H:33])[c:14]([H:34])[c:15]([H:35])[c:16]([n:17]2)[C:18]([H:36])([H:37])[2N:19]->1([C:20]([H:38])([H:39])[H:40])[C:21]([H:41])([H:42])[H:43])([H:22])([H:23])[H:24]", "smiles3Dx": "C([C:1]#[5N:2]->[Ru+2:3]1(<-[3C-:4]#[O+:5])(<-[4H-:6])(<-[6H-:7])<-[1N:8]([C:9]([H:25])([H:26])[H:27])([C:10]([H:28])([H:29])[H:30])[C:11]([H:31])([H:32])[c:12]2[c:13]([H:33])[c:14]([H:34])[c:15]([H:35])[c:16]([n:17]2)[C:18]([H:36])([H:37])[2N:19]->1([C:20]([H:38])([H:39])[H:40])[C:21]([H:41])([H:42])[H:43])([H:22])([H:23])[H:24]", "dummies": []}
C      0.3089    -4.2579     2.2752
C      0.2141    -2.9703     1.5887
N      0.1322    -1.8890     1.0107
Ru     0.0000     0.0000     0.0000
C      0.1373     1.9476    -0.9159
O      0.2143     3.0367    -1.4280
H      1.6714    -0.0884    -0.2178
H      0.4503     0.7425     1.4480
N     -0.1009    -1.1095    -1.9849
C      1.2180    -1.6227    -2.1682
C     -0.9747    -2.2442    -1.8998
C     -0.3637    -0.2678    -3.1427
C     -1.7179     0.2900    -3.0347
C     -2.7234     0.0905    -3.9926
C     -4.0580     0.0660    -3.5624
C     -4.3414     0.1285    -2.1904
C     -3.2792     0.3346    -1.2995
N     -2.0441     0.4788    -1.7608
C     -3.2922    -0.1139     0.0969
N     -2.1220     0.3427     0.8135
C     -2.1381    -0.3042     2.0840
C     -2.2270     1.7489     1.0515
H      1.2877    -4.3300     2.7923
H     -0.5099    -4.3408     3.0190
H      0.2202    -5.0787     1.5341
H      1.5354    -2.1900    -1.2658
H      1.9462    -0.7943    -2.3230
H      1.2724    -2.3049    -3.0512
H     -0.5826    -3.0038    -1.1887
H     -1.0869    -2.7286    -2.8976
H     -1.9721    -1.9507    -1.5491
H     -0.2805    -0.8521    -4.0911
H      0.3603     0.5756    -3.1836
H     -2.4774    -0.1335    -5.0227
H     -4.8532    -0.1205    -4.2724
H     -5.3445    -0.0579    -1.8285
H     -4.2270     0.2593     0.5814
H     -3.3294    -1.2270     0.0954
H     -1.2435    -0.0160     2.6750
H     -3.0490    -0.0339     2.6712
H     -2.1262    -1.4077     1.9595
H     -2.2814     2.3060     0.0938
H     -1.3357     2.1101     1.6071
H     -3.1370     1.9987     1.6476
44
{"conf": 2, "E": 127.5, "rms": -1.0, "geom": "OH", "total_charge": 0, "CA_charge": 2, "smiles": "C[C:1]#[5N:2]->[Ru+2:3]1(<-[3C-:4]#[O+:5])(<-[4H-:6])(<-[6H-:7])<-[1N:8]([CH3:9])([CH3:10])[CH2:11][c:12]2[cH:13][cH:14][cH:15][c:16]([n:17]2)[CH2:18][2N:19]->1([CH3:20])[CH3:21]", "smiles3D": "C([C:1]#[5N:2]->[Ru+2:3]1(<-[3C-:4]#[O+:5])(<-[4H-:6])(<-[6H-:7])<-[1N:8]([C:9]([H:25])([H:26])[H:27])([C:10]([H:28])([H:29])[H:30])[C:11]([H:31])([H:32])[c:12]2[c:13]([H:33])[c:14]([H:34])[c:15]([H:35])[c:16]([n:17]2)[C:18]([H:36])([H:37])[2N:19]->1([C:20]([H:38])([H:39])[H:40])[C:21]([H:41])([H:42])[H:43])([H:22])([H:23])[H:24]", "smiles3Dx": "C([C:1]#[5N:2]->[Ru+2:3]1(<-[3C-:4]#[O+:5])(<-[4H-:6])(<-[6H-:7])<-[1N:8]([C:9]([H:25])([H:26])[H:27])([C:10]([H:28])([H:29])[H:30])[C:11]([H:31])([H:32])[c:12]2[c:13]([H:33])[c:14]([H:34])[c:15]([H:35])[c:16]([n:17]2)[C:18]([H:36])([H:37])[2N:19]->1([C:20]([H:38])([H:39])[H:40])[C:21]([H:41])([H:42])[H:43])([H:22])([H:23])[H:24]", "dummies": []}
C      1.0458     4.1460    -2.2878
C      0.7244     2.8954    -1.6025
N      0.4627     1.8453    -1.0205
Ru     0.0000     0.0000     0.0000
C     -0.7804    -1.8493     0.7703
O     -1.2185    -2.8866     1.2020
H     -0.3927    -0.5873    -1.5315
H     -1.5949     0.5479    -0.0239
N      2.0435    -0.9815    -0.3564
C      1.7882    -1.9648    -1.3597
C      2.5257    -1.6811     0.7997
C      3.0555    -0.0933    -0.8951
C      3.1578     1.0986    -0.0475
C      4.0177     2.1855    -0.2492
C      3.7986     3.3534     0.5039
C      2.7092     3.4212     1.3914
C      1.8993     2.2870     1.5306
N      2.1657     1.1938     0.8280
C      0.5925     2.2325     2.1933
N      0.0707     0.8815     2.1176
C     -1.2997     0.9512     2.5125
C      0.7300     0.0146     3.0515
H      0.6974     4.0920    -3.3396
H      2.1438     4.3042    -2.2684
H      0.5421     4.9893    -1.7724
H      2.7103    -2.5410    -1.6149
H      1.4170    -1.4859    -2.2916
H      1.0136    -2.6797    -1.0089
H      2.9831    -0.9932     1.5311
H      3.3062    -2.4302     0.5254
H      1.6958    -2.2160     1.2957
H      4.0513    -0.5952    -0.9392
H      2.7804     0.2430    -1.9221
H      4.8039     2.1451    -0.9920
H      4.4346     4.2170     0.3607
H      2.4817     4.3380     1.9198
H     -0.0839     2.9478     1.6696
H      0.7079     2.5620     3.2533
H     -1.8702     1.6182     1.8305
H     -1.7629    -0.0578     2.4728
H     -1.4089     1.3489     3.5505
H      0.4528     0.2641     4.1034
H      1.8278     0.0978     2.9798
H      0.4468    -1.0364     2.8620
