43
{"conf": 0, "E": 115.79, "rms": -1.0, "geom": "OH", "total_charge": 0, "CA_charge": 2, "smiles": "C[C:1]#[6N:2]->[Ru+2:3]1(<-[3H-:4])(<-[4H-:5])(<-[5C-:6]#[O+:7])<-[1N:8]([CH3:9])([CH3:10])[CH2:11][CH2:12][NH:13][CH2:14][CH2:15][2N:16]->1([CH3:17])[CH3:18]", "smiles3D": "C([C:1]#[6N:2]->[Ru+2:3]1(<-[3H-:4])(<-[4H-:5])(<-[5C-:6]#[O+:7])<-[1N:8]([C:9]([H:22])([H:23])[H:24])([C:10]([H:25])([H:26])[H:27])[C:11]([H:28])([H:29])[C:12]([H:30])([H:31])[N:13]([H:32])[C:14]([H:33])([H:34])[C:15]([H:35])([H:36])[2N:16]->1([C:17]([H:37])([H:38])[H:39])[C:18]([H:40])([H:41])[H:42])([H:19])([H:20])[H:21]", "smiles3Dx": "C([C:1]#[6N:2]->[Ru+2:3]1(<-[3H-:4])(<-[4H-:5])(<-[5C-:6]#[O+:7])<-[1N:8]([C:9]([H:22])([H:23])[H:24])([C:10]([H:25])([H:26])[H:27])[C:11]([H:28])([H:29])[C:12]([H:30])([H:31])[N:13]([H:32])[C:14]([H:33])([H:34])[C:15]([H:35])([H:36])[2N:16]->1([C:17]([H:37])([H:38])[H:39])[C:18]([H:40])([H:41])[H:42])([H:19])([H:20])[H:21]", "dummies": []}
C     -2.5886     2.2292    -3.4286
C     -1.8086     1.5517    -2.3935
N     -1.1549     0.9805    -1.5236
Ru     0.0000     0.0000     0.0000
H      1.0219    -0.5181    -1.2261
H      0.8118     1.4773    -0.0459
C     -1.3144     0.8776     1.4561
O     -2.0520     1.3705     2.2728
N      1.5109    -0.6135     1.5515
C      0.9122    -1.1918     2.7271
C      2.0864     0.6341     1.9603
C      2.5935    -1.4192     1.0086
C      2.2287    -2.6197     0.1198
N      1.1071    -3.3668     0.6745
C      0.2252    -3.9215    -0.3464
C     -0.6666    -2.8511    -1.0135
N     -1.2975    -1.8514    -0.1720
C     -2.4791    -1.4080    -0.8482
C     -1.7388    -2.3526     1.0885
H     -1.9355     2.4526    -4.2970
H     -3.4222     1.5723    -3.7517
H     -2.9999     3.1757    -3.0214
H      0.9633    -2.2912     2.7263
H      1.4092    -0.8602     3.6707
H     -0.1449    -0.8924     2.7876
H      2.8686     0.4862     2.7440
H      1.2952     1.3013     2.3697
H      2.5637     1.1537     1.1017
H      3.2035    -1.8053     1.8609
H      3.2669    -0.7775     0.3919
H      3.1204    -3.2848     0.0571
H      2.0607    -2.3039    -0.9248
H      1.4879    -4.1626     1.2400
H     -0.4376    -4.6787     0.1282
H      0.8153    -4.4589    -1.1232
H     -1.4458    -3.4182    -1.5815
H     -0.0556    -2.3152    -1.7641
H     -2.2533    -1.1581    -1.9083
H     -2.8829    -0.4998    -0.3512
H     -3.2769    -2.1903    -0.8497
H     -2.2729    -1.5631     1.6595
H     -2.4345    -3.2135     0.9467
H     -0.9097    -2.7037     1.7001
43
{"conf": 1, "E": 114.55, "rms": -1.0, "geom": "OH", "total_charge": 0, "CA_charge": 2, "smiles": "C[C:1]#[6N:2]->[Ru+2:3]1(<-[3H-:4])(<-[4H-:5])(<-[5C-:6]#[O+:7])<-[1N:8]([CH3:9])([CH3:10])[CH2:11][CH2:12][NH:13][CH2:14][CH2:15][2N:16]->1([CH3:17])[CH3:18]", "smiles3D": "C([C:1]#[6N:2]->[Ru+2:3]1(<-[3H-:4])(<-[4H-:5])(<-[5C-:6]#[O+:7])<-[1N:8]([C:9]([H:22])([H:23])[H:24])([C:10]([H:25])([H:26])[H:27])[C:11]([H:28])([H:29])[C:12]([H:30])([H:31])[N:13]([H:32])[C:14]([H:33])([H:34])[C:15]([H:35])([H:36])[2N:16]->1([C:17]([H:37])([H:38])[H:39])[C:18]([H:40])([H:41])[H:42])([H:19])([H:20])[H:21]", "smiles3Dx": "C([C:1]#[6N:2]->[Ru+2:3]1(<-[3H-:4])(<-[4H-:5])(<-[5C-:6]#[O+:7])<-[1N:8]([C:9]([H:22])([H:23])[H:24])([C:10]([H:25])([H:26])[H:27])[C:11]([H:28])([H:29])[C:12]([H:30])([H:31])[N:13]([H:32])[C:14]([H:33])([H:34])[C:15]([H:35])([H:36])[2N:16]->1([C:17]([H:37])([H:38])[H:39])[C:18]([H:40])([H:41])[H:42])([H:19])([H:20])[H:21]", "dummies": []}
C      3.7367     3.0050     0.6625
C      2.6060     2.0998     0.4600
N      1.6544     1.3411     0.2889
Ru     0.0000     0.0000     0.0000
H      0.6404    -0.3746    -1.5187
H      1.0992    -1.0855     0.6782
C     -0.5713     0.5439     1.9972
O     -0.8860     0.8499     3.1206
N     -1.3355    -1.8220    -0.1151
C     -1.0790    -2.5795     1.0680
C     -0.8009    -2.5348    -1.2218
C     -2.7680    -1.7138    -0.3181
C     -3.5960    -1.0481     0.7878
N     -3.1194     0.2941     1.0673
C     -3.4690     1.2460     0.0133
C     -2.2791     2.1651    -0.2457
N     -1.1797     1.6313    -1.0157
C     -1.5576     1.2033    -2.3191
C     -0.2682     2.7174    -1.2102
H      3.8285     3.2460     1.7414
H      3.5691     3.9389     0.0877
H      4.6688     2.5165     0.3115
H     -0.0143    -2.8940     1.1248
H     -1.2978    -1.9648     1.9622
H     -1.7091    -3.4994     1.1093
H     -1.2349    -3.5604    -1.3017
H      0.3026    -2.6279    -1.1174
H     -1.0101    -1.9862    -2.1669
H     -3.1816    -2.7464    -0.4311
H     -2.9845    -1.2082    -1.2601
H     -4.6685    -1.0242     0.4873
H     -3.5501    -1.6596     1.7141
H     -3.5584     0.6123     1.9640
H     -3.8267     0.7798    -0.9254
H     -4.3207     1.8754     0.3600
H     -1.8930     2.5006     0.7436
H     -2.6814     3.0694    -0.7662
H     -2.2013     1.9647    -2.8193
H     -2.1056     0.2708    -2.2781
H     -0.6613     1.0265    -2.9575
H      0.6488     2.3623    -1.7307
H      0.0340     3.1563    -0.2331
H     -0.7232     3.5304    -1.8275
43
{"conf": 2, "E": 119.44, "rms": -1.0, "geom": "OH", "total_charge": 0, "CA_charge": 2, "smiles": "C[C:1]#[6N:2]->[Ru+2:3]1(<-[3H-:4])(<-[4H-:5])(<-[5C-:6]#[O+:7])<-[1N:8]([CH3:9])([CH3:10])[CH2:11][CH2:12][NH:13][CH2:14][CH2:15][2N:16]->1([CH3:17])[CH3:18]", "smiles3D": "C([C:1]#[6N:2]->[Ru+2:3]1(<-[3H-:4])(<-[4H-:5])(<-[5C-:6]#[O+:7])<-[1N:8]([C:9]([H:22])([H:23])[H:24])([C:10]([H:25])([H:26])[H:27])[C:11]([H:28])([H:29])[C:12]([H:30])([H:31])[N:13]([H:32])[C:14]([H:33])([H:34])[C:15]([H:35])([H:36])[2N:16]->1([C:17]([H:37])([H:38])[H:39])[C:18]([H:40])([H:41])[H:42])([H:19])([H:20])[H:21]", "smiles3Dx": "C([C:1]#[6N:2]->[Ru+2:3]1(<-[3H-:4])(<-[4H-:5])(<-[5C-:6]#[O+:7])<-[1N:8]([C:9]([H:22])([H:23])[H:24])([C:10]([H:25])([H:26])[H:27])[C:11]([H:28])([H:29])[C:12]([H:30])([H:31])[N:13]([H:32])[C:14]([H:33])([H:34])[C:15]([H:35])([H:36])[2N:16]->1([C:17]([H:37])([H:38])[H:39])[C:18]([H:40])([H:41])[H:42])([H:19])([H:20])[H:21]", "dummies": []}
C     -4.4287     0.4263     1.8946
C     -3.0908     0.3012     1.3172
N     -1.9671     0.1975     0.8304
Ru     0.0000     0.0000     0.0000
H      0.5130     1.0460     1.2004
H      0.0999    -1.2604     1.1193
C     -0.7941    -1.4336    -1.3952
O     -1.2394    -2.2366    -2.1769
N      2.1382    -0.5221    -0.4528
C      2.6552    -1.0268     0.7863
C      2.1805    -1.5912    -1.3951
C      2.9708     0.5491    -0.9315
C      2.9794     1.8376    -0.0867
N      2.2630     2.9121    -0.7867
C      1.0524     3.3581    -0.0912
C     -0.2497     3.0139    -0.8443
N     -0.4290     1.6961    -1.4341
C      0.2943     1.5252    -2.6599
C     -1.8259     1.5959    -1.7750
H     -4.6429     1.4948     2.1021
H     -5.1783     0.0311     1.1787
H     -4.4790    -0.1519     2.8401
H      2.3899    -0.3420     1.6139
H      3.7645    -1.1378     0.7594
H      2.2189    -2.0224     1.0303
H      1.8019    -1.2668    -2.3829
H      1.5532    -2.4408    -1.0479
H      3.2248    -1.9628    -1.5291
H      4.0256     0.1823    -0.9840
H      2.6922     0.8067    -1.9660
H      4.0431     2.1457     0.0395
H      2.6312     1.6772     0.9466
H      2.9088     3.7299    -0.8992
H      1.0074     3.0646     0.9743
H      1.0776     4.4701    -0.0205
H     -1.0726     3.1952    -0.1126
H     -0.3676     3.7703    -1.6587
H      0.5913     0.4718    -2.7431
H     -0.3063     1.7769    -3.5675
H      1.1958     2.1533    -2.7066
H     -2.4718     1.7327    -0.8902
H     -2.1159     2.3796    -2.5169
H     -2.0514     0.6045    -2.2159
43
{"conf": 3, "E": 121.27, "rms": -1.0, "geom": "OH", "total_charge": 0, "CA_charge": 2, "smiles": "C[C:1]#[6N:2]->[Ru+2:3]1(<-[3H-:4])(<-[4H-:5])(<-[5C-:6]#[O+:7])<-[1N:8]([CH3:9])([CH3:10])[CH2:11][CH2:12][NH:13][CH2:14][CH2:15][2N:16]->1([CH3:17])[CH3:18]", "smiles3D": "C([C:1]#[6N:2]->[Ru+2:3]1(<-[3H-:4])(<-[4H-:5])(<-[5C-:6]#[O+:7])<-[1N:8]([C:9]([H:22])([H:23])[H:24])([C:10]([H:25])([H:26])[H:27])[C:11]([H:28])([H:29])[C:12]([H:30])([H:31])[N:13]([H:32])[C:14]([H:33])([H:34])[C:15]([H:35])([H:36])[2N:16]->1([C:17]([H:37])([H:38])[H:39])[C:18]([H:40])([H:41])[H:42])([H:19])([H:20])[H:21]", "smiles3Dx": "C([C:1]#[6N:2]->[Ru+2:3]1(<-[3H-:4])(<-[4H-:5])(<-[5C-:6]#[O+:7])<-[1N:8]([C:9]([H:22])([H:23])[H:24])([C:10]([H:25])([H:26])[H:27])[C:11]([H:28])([H:29])[C:12]([H:30])([H:31])[N:13]([H:32])[C:14]([H:33])([H:34])[C:15]([H:35])([H:36])[2N:16]->1([C:17]([H:37])([H:38])[H:39])[C:18]([H:40])([H:41])[H:42])([H:19])([H:20])[H:21]", "dummies": []}
C      4.5390    -0.1807     1.6748
C      3.1666    -0.1287     1.1723
N      2.0125    -0.0868     0.7517
Ru     0.0000     0.0000     0.0000
H     -0.2155     1.3728     0.9587
H      0.7756     0.9709    -1.1426
C      0.5379    -1.6679    -1.2364
O      0.8474    -2.6032    -1.9322
N     -1.9132     0.5263    -1.0791
C     -2.8309     1.1715    -0.2022
C     -1.4773     1.5288    -2.0021
C     -2.4979    -0.5497    -1.8617
C     -3.5703    -1.4379    -1.1981
N     -3.1903    -1.8599     0.1433
C     -2.1307    -2.8593     0.1385
C     -1.1569    -2.6639     1.3097
N     -0.7504    -1.3153     1.6869
C      0.3799    -1.4715     2.5501
C     -1.7487    -0.6199     2.4599
H      4.8652     0.8391     1.9653
H      4.5831    -0.8492     2.5591
H      5.2087    -0.5717     0.8815
H     -3.7086     1.5635    -0.7686
H     -3.2064     0.4876     0.5628
H     -2.3388     2.0226     0.3188
H     -2.3340     1.9898    -2.5516
H     -0.9348     2.3382    -1.4633
H     -0.7825     1.0832    -2.7503
H     -1.6824    -1.1984    -2.2146
H     -2.9849    -0.1325    -2.7778
H     -4.5187    -0.8598    -1.1374
H     -3.7781    -2.3228    -1.8419
H     -4.0358    -2.2746     0.6030
H     -1.5842    -2.9028    -0.8171
H     -2.5805    -3.8746     0.2306
H     -0.2519    -3.2656     1.0547
H     -1.6217    -3.1435     2.2056
H      0.1303    -2.0902     3.4467
H      0.7344    -0.4749     2.8995
H      1.2142    -1.9739     2.0160
H     -1.6487     0.4659     2.2891
H     -1.6494    -0.7991     3.5583
H     -2.7717    -0.9174     2.1949
