43
{"conf": 0, "E": 60.8, "rms": -1.0, "geom": "OH", "total_charge": 0, "CA_charge": 2, "smiles": "C[C:1]#[4N:2]->[Ru+2:3]1(<-[3C-:4]#[O+:5])(<-[5H-:6])(<-[6H-:7])<-[1N@H:8]([CH2:9][CH2:10][N:11]([CH3:12])[CH3:13])[CH2:14][CH2:15][2N:16]->1([CH3:17])[CH3:18]", "smiles3D": "C([C:1]#[4N:2]->[Ru+2:3]1(<-[3C-:4]#[O+:5])(<-[5H-:6])(<-[6H-:7])<-[1N@@:8]([C:9]([C:10]([N:11]([C:12]([H:27])([H:28])[H:29])[C:13]([H:30])([H:31])[H:32])([H:25])[H:26])([H:23])[H:24])([H:22])[C:14]([H:33])([H:34])[C:15]([H:35])([H:36])[2N:16]->1([C:17]([H:37])([H:38])[H:39])[C:18]([H:40])([H:41])[H:42])([H:19])([H:20])[H:21]", "smiles3Dx": "C([C:1]#[4N:2]->[Ru+2:3]1(<-[3C-:4]#[O+:5])(<-[5H-:6])(<-[6H-:7])<-[1N@@:8]([C:9]([C:10]([N:11]([C:12]([H:27])([H:28])[H:29])[C:13]([H:30])([H:31])[H:32])([H:25])[H:26])([H:23])[H:24])([H:22])[C:14]([H:33])([H:34])[C:15]([H:35])([H:36])[2N:16]->1([C:17]([H:37])([H:38])[H:39])[C:18]([H:40])([H:41])[H:42])([H:19])([H:20])[H:21]", "dummies": []}
C     -0.5841     4.0005     2.6449
C     -0.4035     2.7850     1.8519
N     -0.2544     1.7668     1.1810
Ru     0.0000     0.0000     0.0000
C     -2.0313    -0.5442     0.4558
O     -3.1700    -0.8482     0.7110
H      1.6023     0.4706    -0.2601
H      0.5023    -0.8653     1.3617
N     -0.5508     1.0247    -1.8099
C     -1.8690     1.5230    -1.7331
C     -2.1200     2.7369    -2.6516
N     -1.2653     3.8799    -2.2587
C     -1.9138     4.6957    -1.2167
C     -0.9658     4.7245    -3.4260
C     -0.3043     0.1248    -2.8769
C     -0.4762    -1.3577    -2.4588
N      0.2628    -1.6994    -1.2900
C      1.6486    -1.8487    -1.5409
C     -0.2332    -2.8701    -0.6636
H      0.2259     4.0739     3.3993
H     -1.5667     3.9639     3.1584
H     -0.5492     4.8854     1.9766
H      0.0274     1.7306    -1.8847
H     -2.5967     0.7218    -1.9969
H     -2.0666     1.8288    -0.6883
H     -1.9086     2.4203    -3.6960
H     -3.1996     3.0090    -2.6186
H     -2.1471     4.0809    -0.3235
H     -2.8551     5.1571    -1.5909
H     -1.2260     5.5018    -0.8819
H     -0.3356     5.5898    -3.1262
H     -0.3846     4.1452    -4.1754
H     -1.8999     5.1007    -3.9004
H     -0.9902     0.3266    -3.7308
H      0.7348     0.2706    -3.2479
H     -0.1670    -2.0072    -3.3112
H     -1.5624    -1.5257    -2.2819
H      2.0705    -0.9311    -1.9953
H      2.1876    -2.0349    -0.5850
H      1.8383    -2.7034    -2.2312
H     -1.3269    -2.8057    -0.4943
H     -0.0327    -3.7674    -1.2945
H      0.2605    -3.0098     0.3229
43
{"conf": 1, "E": 61.55, "rms": -1.0, "geom": "OH", "total_charge": 0, "CA_charge": 2, "smiles": "C[C:1]#[4N:2]->[Ru+2:3]1(<-[3C-:4]#[O+:5])(<-[5H-:6])(<-[6H-:7])<-[1N@H:8]([CH2:9][CH2:10][N:11]([CH3:12])[CH3:13])[CH2:14][CH2:15][2N:16]->1([CH3:17])[CH3:18]", "smiles3D": "C([C:1]#[4N:2]->[Ru+2:3]1(<-[3C-:4]#[O+:5])(<-[5H-:6])(<-[6H-:7])<-[1N@@:8]([C:9]([C:10]([N:11]([C:12]([H:27])([H:28])[H:29])[C:13]([H:30])([H:31])[H:32])([H:25])[H:26])([H:23])[H:24])([H:22])[C:14]([H:33])([H:34])[C:15]([H:35])([H:36])[2N:16]->1([C:17]([H:37])([H:38])[H:39])[C:18]([H:40])([H:41])[H:42])([H:19])([H:20])[H:21]", "smiles3Dx": "C([C:1]#[4N:2]->[Ru+2:3]1(<-[3C-:4]#[O+:5])(<-[5H-:6])(<-[6H-:7])<-[1N@@:8]([C:9]([C:10]([N:11]([C:12]([H:27])([H:28])[H:29])[C:13]([H:30])([H:31])[H:32])([H:25])[H:26])([H:23])[H:24])([H:22])[C:14]([H:33])([H:34])[C:15]([H:35])([H:36])[2N:16]->1([C:17]([H:37])([H:38])[H:39])[C:18]([H:40])([H:41])[H:42])([H:19])([H:20])[H:21]", "dummies": []}
C     -3.2368    -2.0306    -2.9592
C     -2.2551    -1.4206    -2.0633
N     -1.4331    -0.9038    -1.3106
Ru     0.0000     0.0000     0.0000
C      1.1028     0.6297    -1.7381
O      1.7196     0.9827    -2.7124
H     -0.9181    -0.5692     1.2989
H      0.8945    -1.4337     0.0175
N     -1.0514     1.8663     0.1239
C     -1.6955     2.2168    -1.0904
C     -3.2193     1.9922    -1.0434
N     -3.8518     2.8874    -0.0490
C     -5.0790     2.2745     0.4845
C     -4.1774     4.1958    -0.6437
C     -0.0745     2.7755     0.5460
C      0.7432     2.1968     1.7231
N      1.3654     0.9530     1.3836
C      2.6332     1.1290     0.7767
C      1.4895     0.1013     2.5061
H     -2.7672    -2.2241    -3.9455
H     -3.5909    -2.9874    -2.5234
H     -4.0968    -1.3415    -3.0876
H     -1.6678     1.7824     0.7965
H     -1.5054     3.2821    -1.3553
H     -1.2815     1.5921    -1.9025
H     -3.3815     0.9257    -0.7741
H     -3.6532     2.1388    -2.0588
H     -5.8027     2.0481    -0.3306
H     -5.5613     2.9520     1.2220
H     -4.8318     1.3344     1.0232
H     -4.6065     4.8696     0.1290
H     -4.9090     4.0921    -1.4761
H     -3.2624     4.6914    -1.0275
H      0.6168     3.0066    -0.2929
H     -0.5599     3.7240     0.8769
H      1.5094     2.9480     2.0296
H      0.0409     2.0637     2.5785
H      3.3960     1.4411     1.5281
H      2.5928     1.9058    -0.0149
H      2.9600     0.1725     0.3129
H      1.9351    -0.8720     2.2015
H      0.4937    -0.1013     2.9538
H      2.1382     0.5662     3.2849
43
{"conf": 2, "E": 70.94, "rms": -1.0, "geom": "OH", "total_charge": 0, "CA_charge": 2, "smiles": "C[C:1]#[4N:2]->[Ru+2:3]1(<-[3C-:4]#[O+:5])(<-[5H-:6])(<-[6H-:7])<-[1N@H:8]([CH2:9][CH2:10][N:11]([CH3:12])[CH3:13])[CH2:14][CH2:15][2N:16]->1([CH3:17])[CH3:18]", "smiles3D": "C([C:1]#[4N:2]->[Ru+2:3]1(<-[3C-:4]#[O+:5])(<-[5H-:6])(<-[6H-:7])<-[1N@@:8]([C:9]([C:10]([N:11]([C:12]([H:27])([H:28])[H:29])[C:13]([H:30])([H:31])[H:32])([H:25])[H:26])([H:23])[H:24])([H:22])[C:14]([H:33])([H:34])[C:15]([H:35])([H:36])[2N:16]->1([C:17]([H:37])([H:38])[H:39])[C:18]([H:40])([H:41])[H:42])([H:19])([H:20])[H:21]", "smiles3Dx": "C([C:1]#[4N:2]->[Ru+2:3]1(<-[3C-:4]#[O+:5])(<-[5H-:6])(<-[6H-:7])<-[1N@@:8]([C:9]([C:10]([N:11]([C:12]([H:27])([H:28])[H:29])[C:13]([H:30])([H:31])[H:32])([H:25])[H:26])([H:23])[H:24])([H:22])[C:14]([H:33])([H:34])[C:15]([H:35])([H:36])[2N:16]->1([C:17]([H:37])([H:38])[H:39])[C:18]([H:40])([H:41])[H:42])([H:19])([H:20])[H:21]", "dummies": []}
C      3.5702     2.5212    -2.0612
C      2.4920     1.7560    -1.4360
N      1.5843     1.1141    -0.9128
Ru     0.0000     0.0000     0.0000
C     -0.8803     1.8709     0.5876
O     -1.3709     2.9200     0.9238
H      0.8090    -1.4197    -0.4301
H      0.8353    -0.0061     1.4691
N     -1.1546    -0.1938    -1.8008
C     -0.8834     0.7124    -2.8588
C     -1.4174     2.1552    -2.7411
N     -2.8881     2.2176    -2.9070
C     -3.2635     2.3097    -4.3295
C     -3.4380     3.3754    -2.1834
C     -2.4665    -0.2938    -1.3426
C     -2.5597    -1.3933    -0.2561
N     -1.6437    -1.1550     0.8300
C     -1.0903    -2.3562     1.3284
C     -2.2481    -0.4319     1.8870
H      3.1968     2.9895    -2.9951
H      3.9154     3.3115    -1.3634
H      4.4150     1.8429    -2.2996
H     -0.9275    -1.0209    -2.1324
H      0.2182     0.7672    -2.9724
H     -1.2849     0.2736    -3.8014
H     -1.0929     2.5777    -1.7775
H     -0.9114     2.7826    -3.5105
H     -4.3700     2.2961    -4.4329
H     -2.8710     3.2425    -4.7928
H     -2.8791     1.4376    -4.8963
H     -3.2550     3.2655    -1.0937
H     -2.9783     4.3258    -2.5363
H     -4.5397     3.4306    -2.3204
H     -2.7883     0.6671    -0.8967
H     -3.1525    -0.5506    -2.1834
H     -2.3412    -2.3681    -0.7517
H     -3.6115    -1.4376     0.1144
H     -0.5643    -2.9054     0.5187
H     -0.3523    -2.1331     2.1310
H     -1.8865    -3.0171     1.7438
H     -2.8312     0.4289     1.4950
H     -1.4617    -0.0426     2.5698
H     -2.9412    -1.0808     2.4721
