43
{"conf": 0, "E": 60.66, "rms": -1.0, "geom": "OH", "total_charge": 0, "CA_charge": 2, "smiles": "C[C:1]#[4N:2]->[Ru+2:3]1(<-[3H-:4])(<-[5C-:5]#[O+:6])(<-[6H-:7])<-[1N@H:8]([CH2:9][CH2:10][N:11]([CH3:12])[CH3:13])[CH2:14][CH2:15][2N:16]->1([CH3:17])[CH3:18]", "smiles3D": "C([C:1]#[4N:2]->[Ru+2:3]1(<-[3H-:4])(<-[5C-:5]#[O+:6])(<-[6H-:7])<-[1N@@:8]([C:9]([C:10]([N:11]([C:12]([H:27])([H:28])[H:29])[C:13]([H:30])([H:31])[H:32])([H:25])[H:26])([H:23])[H:24])([H:22])[C:14]([H:33])([H:34])[C:15]([H:35])([H:36])[2N:16]->1([C:17]([H:37])([H:38])[H:39])[C:18]([H:40])([H:41])[H:42])([H:19])([H:20])[H:21]", "smiles3Dx": "C([C:1]#[4N:2]->[Ru+2:3]1(<-[3H-:4])(<-[5C-:5]#[O+:6])(<-[6H-:7])<-[1N@@:8]([C:9]([C:10]([N:11]([C:12]([H:27])([H:28])[H:29])[C:13]([H:30])([H:31])[H:32])([H:25])[H:26])([H:23])[H:24])([H:22])[C:14]([H:33])([H:34])[C:15]([H:35])([H:36])[2N:16]->1([C:17]([H:37])([H:38])[H:39])[C:18]([H:40])([H:41])[H:42])([H:19])([H:20])[H:21]", "dummies": []}
C     -3.2164     0.1915     3.6009
C     -2.2416     0.1403     2.5120
N     -1.4236     0.0914     1.5966
Ru     0.0000     0.0000     0.0000
H      0.8335    -1.2062     0.8381
C     -1.1392     1.5671    -0.9294
O     -1.7793     2.4462    -1.4506
H      0.9508     1.1667     0.7685
N     -1.1191    -1.4642    -1.0926
C     -0.9777    -2.7665    -0.5642
C     -1.6691    -2.9303     0.7982
N     -1.7818    -4.3631     1.1531
C     -1.7253    -4.5394     2.6137
C     -3.0399    -4.9363     0.6416
C     -0.6460    -1.3322    -2.4136
C      0.8965    -1.2135    -2.4791
N      1.3938    -0.1572    -1.6480
C      1.4627     1.0808    -2.3325
C      2.6577    -0.4690    -1.0959
H     -3.5522    -0.8379     3.8432
H     -2.7471     0.6482     4.4963
H     -4.0887     0.8013     3.2879
H     -2.0041    -1.2249    -1.0729
H      0.0996    -3.0060    -0.4409
H     -1.4191    -3.5016    -1.2745
H     -2.6665    -2.4361     0.7866
H     -1.0446    -2.3980     1.5446
H     -1.8343    -5.6133     2.8792
H     -2.5261    -3.9551     3.1206
H     -0.7362    -4.2098     2.9985
H     -3.0695    -6.0287     0.8433
H     -3.9256    -4.4582     1.1173
H     -3.1131    -4.8078    -0.4581
H     -1.0861    -0.4141    -2.8616
H     -0.9670    -2.1990    -3.0370
H      1.1921    -1.0446    -3.5420
H      1.3234    -2.1948    -2.1718
H      0.5313     1.2699    -2.9068
H      2.3187     1.0964    -3.0473
H      1.5956     1.9051    -1.5982
H      3.4181    -0.6042    -1.9001
H      2.6023    -1.4068    -0.5033
H      2.9918     0.3484    -0.4187
43
{"conf": 1, "E": 61.1, "rms": -1.0, "geom": "OH", "total_charge": 0, "CA_charge": 2, "smiles": "C[C:1]#[4N:2]->[Ru+2:3]1(<-[3H-:4])(<-[5C-:5]#[O+:6])(<-[6H-:7])<-[1N@H:8]([CH2:9][CH2:10][N:11]([CH3:12])[CH3:13])[CH2:14][CH2:15][2N:16]->1([CH3:17])[CH3:18]", "smiles3D": "C([C:1]#[4N:2]->[Ru+2:3]1(<-[3H-:4])(<-[5C-:5]#[O+:6])(<-[6H-:7])<-[1N@@:8]([C:9]([C:10]([N:11]([C:12]([H:27])([H:28])[H:29])[C:13]([H:30])([H:31])[H:32])([H:25])[H:26])([H:23])[H:24])([H:22])[C:14]([H:33])([H:34])[C:15]([H:35])([H:36])[2N:16]->1([C:17]([H:37])([H:38])[H:39])[C:18]([H:40])([H:41])[H:42])([H:19])([H:20])[H:21]", "smiles3Dx": "C([C:1]#[4N:2]->[Ru+2:3]1(<-[3H-:4])(<-[5C-:5]#[O+:6])(<-[6H-:7])<-[1N@@:8]([C:9]([C:10]([N:11]([C:12]([H:27])([H:28])[H:29])[C:13]([H:30])([H:31])[H:32])([H:25])[H:26])([H:23])[H:24])([H:22])[C:14]([H:33])([H:34])[C:15]([H:35])([H:36])[2N:16]->1([C:17]([H:37])([H:38])[H:39])[C:18]([H:40])([H:41])[H:42])([H:19])([H:20])[H:21]", "dummies": []}
C      1.5505    -1.3681    -4.3658
C      1.0684    -0.9456    -3.0509
N      0.6678    -0.5943    -1.9439
Ru     0.0000     0.0000     0.0000
H     -0.1771     1.5795    -0.5706
C      0.3308    -2.0418     0.5836
O      0.5162    -3.1878     0.9100
H      1.5900     0.3636     0.4423
N     -2.0568    -0.4398    -0.4111
C     -2.6971     0.5988    -1.1284
C     -2.3513     0.6283    -2.6296
N     -2.5520    -0.6758    -3.3007
C     -3.9659    -1.0944    -3.2671
C     -2.1178    -0.5741    -4.7047
C     -2.6033    -0.6599     0.8687
C     -2.1771     0.4298     1.8826
N     -0.7514     0.5789     1.9466
C     -0.3679     1.9232     2.1544
C     -0.1684    -0.2459     2.9393
H      2.5616    -1.8128    -4.2634
H      1.5994    -0.4896    -5.0415
H      0.8558    -2.1224    -4.7891
H     -2.0974    -1.2201    -0.8862
H     -2.4006     1.5736    -0.6898
H     -3.8030     0.5094    -1.0313
H     -2.9651     1.4182    -3.1203
H     -1.2908     0.9412    -2.7236
H     -4.2552    -1.3914    -2.2380
H     -4.1228    -1.9939    -3.9019
H     -4.6393    -0.2832    -3.6233
H     -2.7734     0.1163    -5.2818
H     -2.1356    -1.5775    -5.1819
H     -1.0749    -0.2010    -4.7688
H     -2.2510    -1.6446     1.2457
H     -3.7166    -0.6957     0.8229
H     -2.5872     0.1580     2.8846
H     -2.6646     1.3835     1.5775
H     -0.7692     2.5704     1.3455
H     -0.7536     2.2985     3.1309
H      0.7416     2.0099     2.1481
H     -0.3578     0.1607     3.9604
H      0.9298    -0.3049     2.7763
H     -0.5851    -1.2746     2.8954
43
{"conf": 3, "E": 59.67, "rms": -1.0, "geom": "OH", "total_charge": 0, "CA_charge": 2, "smiles": "C[C:1]#[4N:2]->[Ru+2:3]1(<-[3H-:4])(<-[5C-:5]#[O+:6])(<-[6H-:7])<-[1N@H:8]([CH2:9][CH2:10][N:11]([CH3:12])[CH3:13])[CH2:14][CH2:15][2N:16]->1([CH3:17])[CH3:18]", "smiles3D": "C([C:1]#[4N:2]->[Ru+2:3]1(<-[3H-:4])(<-[5C-:5]#[O+:6])(<-[6H-:7])<-[1N@@:8]([C:9]([C:10]([N:11]([C:12]([H:27])([H:28])[H:29])[C:13]([H:30])([H:31])[H:32])([H:25])[H:26])([H:23])[H:24])([H:22])[C:14]([H:33])([H:34])[C:15]([H:35])([H:36])[2N:16]->1([C:17]([H:37])([H:38])[H:39])[C:18]([H:40])([H:41])[H:42])([H:19])([H:20])[H:21]", "smiles3Dx": "C([C:1]#[4N:2]->[Ru+2:3]1(<-[3H-:4])(<-[5C-:5]#[O+:6])(<-[6H-:7])<-[1N@@:8]([C:9]([C:10]([N:11]([C:12]([H:27])([H:28])[H:29])[C:13]([H:30])([H:31])[H:32])([H:25])[H:26])([H:23])[H:24])([H:22])[C:14]([H:33])([H:34])[C:15]([H:35])([H:36])[2N:16]->1([C:17]([H:37])([H:38])[H:39])[C:18]([H:40])([H:41])[H:42])([H:19])([H:20])[H:21]", "dummies": []}
C      1.6600     0.8303    -4.4628
C      1.1544     0.5791    -3.1138
N      0.7345     0.3688    -1.9784
Ru     0.0000     0.0000     0.0000
H      0.1979    -1.6562    -0.2762
C     -0.2077     2.1239     0.2259
O     -0.3227     3.3176     0.3522
H     -1.5734    -0.0920    -0.6096
N      1.9338     0.1017     0.9246
C      2.9361    -0.4468     0.0895
C      3.7717     0.6336    -0.6238
N      4.5875     1.3892     0.3529
C      4.8035     2.7683    -0.1140
C      5.8905     0.7371     0.5731
C      1.7752    -0.5686     2.1458
C      0.4514    -0.1656     2.8364
N     -0.6860    -0.4050     2.0064
C     -1.7754     0.4432     2.3260
C     -1.1132    -1.7553     2.0457
H      1.4836    -0.0632    -5.0962
H      1.1327     1.7036    -4.8986
H      2.7482     1.0411    -4.4149
H      2.1116     0.9821     1.1040
H      3.6294    -1.1026     0.6651
H      2.4405    -1.0729    -0.6793
H      4.4060     0.1621    -1.4089
H      3.0593     1.3071    -1.1462
H      3.8314     3.3025    -0.1846
H      5.3006     2.7824    -1.1099
H      5.4288     3.3300     0.6134
H      6.4620     1.2824     1.3547
H      5.7530    -0.3007     0.9403
H      6.4940     0.7118    -0.3619
H      1.7748    -1.6677     1.9811
H      2.6246    -0.3160     2.8239
H      0.3604    -0.7301     3.7942
H      0.5276     0.9170     3.0868
H     -2.2003     0.1799     3.3227
H     -2.5730     0.3387     1.5581
H     -1.4632     1.5066     2.3556
H     -1.5179    -2.0175     3.0511
H     -1.9096    -1.9184     1.2859
H     -0.2762    -2.4443     1.8168
