43
{"conf": 0, "E": 57.34, "rms": -1.0, "geom": "OH", "total_charge": 0, "CA_charge": 2, "smiles": "C[C:1]#[5N:2]->[Ru+2:3]1(<-[3H-:4])(<-[4H-:5])(<-[6C-:6]#[O+:7])<-[1N@H:8]([CH2:9][CH2:10][N:11]([CH3:12])[CH3:13])[CH2:14][CH2:15][2N:16]->1([CH3:17])[CH3:18]", "smiles3D": "C([C:1]#[5N:2]->[Ru+2:3]1(<-[3H-:4])(<-[4H-:5])(<-[6C-:6]#[O+:7])<-[1N@@:8]([C:9]([C:10]([N:11]([C:12]([H:27])([H:28])[H:29])[C:13]([H:30])([H:31])[H:32])([H:25])[H:26])([H:23])[H:24])([H:22])[C:14]([H:33])([H:34])[C:15]([H:35])([H:36])[2N:16]->1([C:17]([H:37])([H:38])[H:39])[C:18]([H:40])([H:41])[H:42])([H:19])([H:20])[H:21]", "smiles3Dx": "C([C:1]#[5N:2]->[Ru+2:3]1(<-[3H-:4])(<-[4H-:5])(<-[6C-:6]#[O+:7])<-[1N@@:8]([C:9]([C:10]([N:11]([C:12]([H:27])([H:28])[H:29])[C:13]([H:30])([H:31])[H:32])([H:25])[H:26])([H:23])[H:24])([H:22])[C:14]([H:33])([H:34])[C:15]([H:35])([H:36])[2N:16]->1([C:17]([H:37])([H:38])[H:39])[C:18]([H:40])([H:41])[H:42])([H:19])([H:20])[H:21]", "dummies": []}
C     -3.1885    -3.4903    -1.0102
C     -2.2222    -2.4360    -0.7047
N     -1.4108    -1.5503    -0.4463
Ru     0.0000     0.0000     0.0000
H      1.1121     1.2451     0.2642
H     -0.0243     0.4185    -1.6368
C      1.6199    -1.3497    -0.3811
O      2.5315    -2.1095    -0.5951
N     -1.6174     1.3208     0.4469
C     -1.4874     2.4900    -0.3192
C     -2.6307     3.5041    -0.1109
N     -3.9552     2.8513    -0.1915
C     -4.9708     3.6862     0.4698
C     -4.3483     2.6187    -1.5924
C     -1.5791     1.5052     1.8381
C     -1.2679     0.1779     2.5669
N     -0.0527    -0.4259     2.1199
C     -0.0510    -1.8240     2.3575
C      1.0923     0.1587     2.7144
H     -2.8102    -4.1061    -1.8518
H     -3.3297    -4.1320    -0.1163
H     -4.1583    -3.0319    -1.2935
H     -2.3936     0.8907     0.2185
H     -1.4587     2.2049    -1.3920
H     -0.5217     2.9857    -0.0752
H     -2.4839     3.9672     0.8904
H     -2.5399     4.3265    -0.8565
H     -5.9686     3.1999     0.4117
H     -5.0293     4.6950     0.0027
H     -4.7295     3.7982     1.5488
H     -3.6365     1.9261    -2.0866
H     -5.3458     2.1303    -1.6348
H     -4.3907     3.5714    -2.1663
H     -2.5680     1.8786     2.1933
H     -0.8068     2.2561     2.1097
H     -2.1268    -0.5073     2.3794
H     -1.2236     0.3744     3.6642
H     -0.9039    -2.3127     1.8476
H     -0.1329    -2.0317     3.4501
H      0.8868    -2.2849     1.9810
H      2.0128    -0.2577     2.2495
H      1.1209    -0.0467     3.8099
H      1.1010     1.2565     2.5639
43
{"conf": 1, "E": 65.48, "rms": -1.0, "geom": "OH", "total_charge": 0, "CA_charge": 2, "smiles": "C[C:1]#[5N:2]->[Ru+2:3]1(<-[3H-:4])(<-[4H-:5])(<-[6C-:6]#[O+:7])<-[1N@H:8]([CH2:9][CH2:10][N:11]([CH3:12])[CH3:13])[CH2:14][CH2:15][2N:16]->1([CH3:17])[CH3:18]", "smiles3D": "C([C:1]#[5N:2]->[Ru+2:3]1(<-[3H-:4])(<-[4H-:5])(<-[6C-:6]#[O+:7])<-[1N@@:8]([C:9]([C:10]([N:11]([C:12]([H:27])([H:28])[H:29])[C:13]([H:30])([H:31])[H:32])([H:25])[H:26])([H:23])[H:24])([H:22])[C:14]([H:33])([H:34])[C:15]([H:35])([H:36])[2N:16]->1([C:17]([H:37])([H:38])[H:39])[C:18]([H:40])([H:41])[H:42])([H:19])([H:20])[H:21]", "smiles3Dx": "C([C:1]#[5N:2]->[Ru+2:3]1(<-[3H-:4])(<-[4H-:5])(<-[6C-:6]#[O+:7])<-[1N@@:8]([C:9]([C:10]([N:11]([C:12]([H:27])([H:28])[H:29])[C:13]([H:30])([H:31])[H:32])([H:25])[H:26])([H:23])[H:24])([H:22])[C:14]([H:33])([H:34])[C:15]([H:35])([H:36])[2N:16]->1([C:17]([H:37])([H:38])[H:39])[C:18]([H:40])([H:41])[H:42])([H:19])([H:20])[H:21]", "dummies": []}
C     -2.3535    -3.6960    -2.0474
C     -1.6424    -2.5785    -1.4275
N     -1.0451    -1.6385    -0.9087
Ru     0.0000     0.0000     0.0000
H      0.8030     1.2346     0.8161
H      0.2613    -0.9931     1.3420
C     -1.8493     0.6688     0.8513
O     -2.8903     1.0452     1.3298
N      1.7999    -0.6796    -0.9251
C      2.9462    -0.4438    -0.1266
C      3.5479     0.9780    -0.1605
N      4.5704     1.1332     0.8992
C      4.7280     2.5539     1.2527
C      5.8720     0.5920     0.4678
C      1.7972    -0.1923    -2.2514
C      1.1026     1.1864    -2.4011
N     -0.1787     1.2490    -1.7613
C     -1.2123     0.7544    -2.5918
C     -0.4805     2.5703    -1.3496
H     -1.6727    -4.5681    -2.1284
H     -2.6965    -3.3990    -3.0599
H     -3.2304    -3.9674    -1.4245
H      1.7116    -1.5929    -0.9729
H      2.6663    -0.6739     0.9249
H      3.7395    -1.1641    -0.4348
H      2.7308     1.7031     0.0041
H      3.9836     1.1983    -1.1599
H      5.0164     3.1598     0.3645
H      3.7781     2.9511     1.6710
H      5.5018     2.6736     2.0418
H      6.6216     0.7039     1.2808
H      6.2481     1.1140    -0.4404
H      5.7946    -0.4938     0.2570
H      2.8379    -0.1149    -2.6392
H      1.2552    -0.9193    -2.9010
H      0.9968     1.4068    -3.4903
H      1.7828     1.9561    -1.9809
H     -0.9313    -0.2239    -3.0340
H     -2.1390     0.6143    -1.9942
H     -1.4283     1.4642    -3.4245
H      0.2398     2.9030    -0.5731
H     -1.5042     2.6271    -0.9196
H     -0.4204     3.2734    -2.2133
43
{"conf": 2, "E": 57.87, "rms": -1.0, "geom": "OH", "total_charge": 0, "CA_charge": 2, "smiles": "C[C:1]#[5N:2]->[Ru+2:3]1(<-[3H-:4])(<-[4H-:5])(<-[6C-:6]#[O+:7])<-[1N@H:8]([CH2:9][CH2:10][N:11]([CH3:12])[CH3:13])[CH2:14][CH2:15][2N:16]->1([CH3:17])[CH3:18]", "smiles3D": "C([C:1]#[5N:2]->[Ru+2:3]1(<-[3H-:4])(<-[4H-:5])(<-[6C-:6]#[O+:7])<-[1N@@:8]([C:9]([C:10]([N:11]([C:12]([H:27])([H:28])[H:29])[C:13]([H:30])([H:31])[H:32])([H:25])[H:26])([H:23])[H:24])([H:22])[C:14]([H:33])([H:34])[C:15]([H:35])([H:36])[2N:16]->1([C:17]([H:37])([H:38])[H:39])[C:18]([H:40])([H:41])[H:42])([H:19])([H:20])[H:21]", "smiles3Dx": "C([C:1]#[5N:2]->[Ru+2:3]1(<-[3H-:4])(<-[4H-:5])(<-[6C-:6]#[O+:7])<-[1N@@:8]([C:9]([C:10]([N:11]([C:12]([H:27])([H:28])[H:29])[C:13]([H:30])([H:31])[H:32])([H:25])[H:26])([H:23])[H:24])([H:22])[C:14]([H:33])([H:34])[C:15]([H:35])([H:36])[2N:16]->1([C:17]([H:37])([H:38])[H:39])[C:18]([H:40])([H:41])[H:42])([H:19])([H:20])[H:21]", "dummies": []}
C     -1.7439     2.6594    -3.6404
C     -1.2155     1.8533    -2.5405
N     -0.7728     1.1752    -1.6166
Ru     0.0000     0.0000     0.0000
H      0.6627    -0.8564     1.2981
H      0.9185     1.3365     0.4704
C      1.6178    -0.6544    -1.2435
O      2.5279    -1.0231    -1.9435
N     -1.6626     0.5926     1.2022
C     -1.2240     1.2483     2.3659
C     -1.0429     2.7611     2.1405
N     -0.1702     3.3548     3.1762
C     -0.9026     3.5431     4.4410
C      0.3478     4.6526     2.7137
C     -2.3553    -0.5978     1.4395
C     -2.5137    -1.4059     0.1310
N     -1.2536    -1.7011    -0.4810
C     -0.6503    -2.8579     0.0718
C     -1.3765    -1.8517    -1.8848
H     -2.4333     2.0422    -4.2525
H     -0.9056     3.0160    -4.2734
H     -2.2938     3.5307    -3.2291
H     -2.1988     1.1484     0.7062
H     -1.9536     1.0997     3.1962
H     -0.2492     0.8107     2.6695
H     -0.5935     2.8956     1.1336
H     -2.0389     3.2591     2.1153
H     -0.2369     3.9982     5.2060
H     -1.7910     4.1990     4.3027
H     -1.2307     2.5650     4.8491
H      1.0060     5.1039     3.4875
H     -0.4814     5.3590     2.4841
H      0.9695     4.5136     1.8031
H     -1.8080    -1.2160     2.1838
H     -3.3689    -0.3701     1.8461
H     -3.1454    -0.7968    -0.5562
H     -3.0701    -2.3463     0.3568
H     -1.2377    -3.7721    -0.1785
H      0.3795    -2.9759    -0.3296
H     -0.5811    -2.7790     1.1756
H     -2.0332    -2.7197    -2.1270
H     -0.3809    -2.0218    -2.3468
H     -1.8191    -0.9452    -2.3425
43
{"conf": 3, "E": 65.48, "rms": -1.0, "geom": "OH", "total_charge": 0, "CA_charge": 2, "smiles": "C[C:1]#[5N:2]->[Ru+2:3]1(<-[3H-:4])(<-[4H-:5])(<-[6C-:6]#[O+:7])<-[1N@H:8]([CH2:9][CH2:10][N:11]([CH3:12])[CH3:13])[CH2:14][CH2:15][2N:16]->1([CH3:17])[CH3:18]", "smiles3D": "C([C:1]#[5N:2]->[Ru+2:3]1(<-[3H-:4])(<-[4H-:5])(<-[6C-:6]#[O+:7])<-[1N@@:8]([C:9]([C:10]([N:11]([C:12]([H:27])([H:28])[H:29])[C:13]([H:30])([H:31])[H:32])([H:25])[H:26])([H:23])[H:24])([H:22])[C:14]([H:33])([H:34])[C:15]([H:35])([H:36])[2N:16]->1([C:17]([H:37])([H:38])[H:39])[C:18]([H:40])([H:41])[H:42])([H:19])([H:20])[H:21]", "smiles3Dx": "C([C:1]#[5N:2]->[Ru+2:3]1(<-[3H-:4])(<-[4H-:5])(<-[6C-:6]#[O+:7])<-[1N@@:8]([C:9]([C:10]([N:11]([C:12]([H:27])([H:28])[H:29])[C:13]([H:30])([H:31])[H:32])([H:25])[H:26])([H:23])[H:24])([H:22])[C:14]([H:33])([H:34])[C:15]([H:35])([H:36])[2N:16]->1([C:17]([H:37])([H:38])[H:39])[C:18]([H:40])([H:41])[H:42])([H:19])([H:20])[H:21]", "dummies": []}
C     -4.2162     2.1989     0.8830
C     -2.9417     1.5331     0.6161
N     -1.8699     0.9755     0.3932
Ru     0.0000     0.0000     0.0000
H      1.4071    -0.8577    -0.3456
H     -0.8325    -1.0377    -1.0420
C     -0.3837    -1.3300     1.6358
O     -0.5997    -2.0779     2.5568
N      0.3555     1.3926    -1.5786
C      1.0632     0.8185    -2.6632
C      2.5959     0.6971    -2.5190
N      3.1542    -0.1373    -3.6074
C      3.3510     0.6518    -4.8369
C      4.4411    -0.7217    -3.1940
C      0.8734     2.5678    -0.9894
C      1.7434     2.2975     0.2659
N      1.1255     1.4066     1.2037
C      2.0971     0.6907     1.9452
C      0.2501     2.0854     2.0844
H     -4.0531     3.0386     1.5895
H     -4.9265     1.4727     1.3288
H     -4.6346     2.5906    -0.0669
H     -0.4784     1.5989    -1.9047
H      0.6506    -0.2024    -2.8204
H      0.8469     1.4192    -3.5772
H      2.8151     0.2281    -1.5430
H      3.0724     1.7022    -2.5127
H      3.7560     0.0059    -5.6457
H      4.0541     1.4980    -4.6685
H      2.3842     1.0505    -5.2056
H      5.1728     0.0708    -2.9187
H      4.8664    -1.3412    -4.0132
H      4.2919    -1.3972    -2.3242
H      0.0232     3.2207    -0.6807
H      1.4773     3.1400    -1.7293
H      2.7148     1.8849    -0.0774
H      1.9618     3.2765     0.7559
H      1.6152     0.0554     2.7199
H      2.6825     0.0305     1.2715
H      2.8000     1.3934     2.4513
H     -0.4313     2.7591     1.5244
H     -0.3677     1.3481     2.6413
H      0.8217     2.6999     2.8190
43
{"conf": 4, "E": 57.34, "rms": -1.0, "geom": "OH", "total_charge": 0, "CA_charge": 2, "smiles": "C[C:1]#[5N:2]->[Ru+2:3]1(<-[3H-:4])(<-[4H-:5])(<-[6C-:6]#[O+:7])<-[1N@H:8]([CH2:9][CH2:10][N:11]([CH3:12])[CH3:13])[CH2:14][CH2:15][2N:16]->1([CH3:17])[CH3:18]", "smiles3D": "C([C:1]#[5N:2]->[Ru+2:3]1(<-[3H-:4])(<-[4H-:5])(<-[6C-:6]#[O+:7])<-[1N@@:8]([C:9]([C:10]([N:11]([C:12]([H:27])([H:28])[H:29])[C:13]([H:30])([H:31])[H:32])([H:25])[H:26])([H:23])[H:24])([H:22])[C:14]([H:33])([H:34])[C:15]([H:35])([H:36])[2N:16]->1([C:17]([H:37])([H:38])[H:39])[C:18]([H:40])([H:41])[H:42])([H:19])([H:20])[H:21]", "smiles3Dx": "C([C:1]#[5N:2]->[Ru+2:3]1(<-[3H-:4])(<-[4H-:5])(<-[6C-:6]#[O+:7])<-[1N@@:8]([C:9]([C:10]([N:11]([C:12]([H:27])([H:28])[H:29])[C:13]([H:30])([H:31])[H:32])([H:25])[H:26])([H:23])[H:24])([H:22])[C:14]([H:33])([H:34])[C:15]([H:35])([H:36])[2N:16]->1([C:17]([H:37])([H:38])[H:39])[C:18]([H:40])([H:41])[H:42])([H:19])([H:20])[H:21]", "dummies": []}
C     -0.8817     1.3445     4.5590
C     -0.6168     0.9390     3.1791
N     -0.3950     0.5967     2.0202
Ru     0.0000     0.0000     0.0000
H      0.3714    -0.4028    -1.5989
H      1.1223     1.2594    -0.0951
C     -1.5298     1.3258    -0.7021
O     -2.3911     2.0717    -1.0971
N      1.4747    -1.3713     0.7106
C      2.6922    -1.1240     0.0568
C      3.8485    -2.0308     0.5250
N      3.9337    -2.0819     2.0005
C      4.5932    -0.8781     2.5364
C      4.6804    -3.2779     2.4222
C      0.9301    -2.6490     0.5059
C     -0.5745    -2.6756     0.8598
N     -1.3291    -1.7007     0.1377
C     -1.6401    -2.1233    -1.1779
C     -2.5229    -1.3586     0.8225
H      0.0095     1.1311     5.1843
H     -1.1034     2.4311     4.5890
H     -1.7520     0.7783     4.9497
H      1.5753    -1.2242     1.6095
H      2.9778    -0.0660     0.2359
H      2.5560    -1.2564    -1.0394
H      3.6619    -3.0462     0.1093
H      4.8049    -1.6764     0.0775
H      4.0018     0.0292     2.2963
H      5.6224    -0.7630     2.1289
H      4.6509    -0.9338     3.6450
H      5.7081    -3.2827     1.9946
H      4.7474    -3.3208     3.5309
H      4.1462    -4.1962     2.0962
H      1.0578    -2.9610    -0.5526
H      1.4572    -3.3884     1.1530
H     -0.9705    -3.6994     0.6606
H     -0.6561    -2.4876     1.9554
H     -2.1192    -1.2906    -1.7382
H     -0.7243    -2.4208    -1.7262
H     -2.3389    -2.9922    -1.1623
H     -3.0862    -0.5806     0.2645
H     -2.2999    -0.9643     1.8330
H     -3.1761    -2.2554     0.9348
