37
{"conf": 0, "E": 131.96, "rms": -1.0, "geom": "OH", "total_charge": 0, "CA_charge": 2, "smiles": "C[1N:1]1([CH3:2])->[Ru+2:3]2(<-[3H-:4])(<-[4C-:5]#[O+:6])(<-[6H-:7])<-[2N@H:8]([CH2:9][CH2:10]1)[CH2:11][CH2:12][5N:13]->2([CH3:14])[CH3:15]", "smiles3D": "C([1N:1]1([C:2]([H:19])([H:20])[H:21])->[Ru+2:3]2(<-[3H-:4])(<-[4C-:5]#[O+:6])(<-[6H-:7])<-[2N@:8]([H:22])([C:9]([H:23])([H:24])[C:10]1([H:25])[H:26])[C:11]([H:27])([H:28])[C:12]([H:29])([H:30])[5N:13]->2([C:14]([H:31])([H:32])[H:33])[C:15]([H:34])([H:35])[H:36])([H:16])([H:17])[H:18]", "smiles3Dx": "C([1N:1]1([C:2]([H:19])([H:20])[H:21])->[Ru+2:3]2(<-[3H-:4])(<-[4C-:5]#[O+:6])(<-[6H-:7])<-[2N@:8]([H:22])([C:9]([H:23])([H:24])[C:10]1([H:25])[H:26])[C:11]([H:27])([H:28])[C:12]([H:29])([H:30])[5N:13]->2([C:14]([H:31])([H:32])[H:33])[C:15]([H:34])([H:35])[H:36])([H:16])([H:17])[H:18]", "dummies": []}
C      1.9724     1.6575     1.4180
N      1.7322     1.3409     0.0535
C      2.9202     0.8030    -0.4928
Ru     0.0000     0.0000     0.0000
H     -0.7163     1.2738     0.8494
C      0.4127    -1.0743     1.8108
O      0.6451    -1.6782     2.8284
H     -1.5920    -0.5665    -0.0428
N      0.0111     0.8977    -1.8626
C      0.0021     2.2329    -1.5871
C      1.2598     2.5253    -0.6824
C     -0.9515     0.2288    -2.5587
C     -0.5595    -1.2982    -2.5360
N      0.3054    -1.6576    -1.4002
C      1.6481    -1.8705    -1.7889
C     -0.1657    -2.8359    -0.7604
H      1.0343     1.9796     1.9132
H      2.3638     0.7704     1.9640
H      2.7163     2.4841     1.5059
H      2.8458     0.6902    -1.5861
H      3.1338    -0.1823    -0.0365
H      3.7856     1.4768    -0.2868
H      0.8000     0.7243    -2.2791
H      0.0619     2.8329    -2.5248
H     -0.9268     2.5022    -1.0403
H      2.0712     2.9197    -1.3385
H      0.9804     3.3475     0.0182
H     -1.0050     0.5908    -3.6117
H     -1.9406     0.3715    -2.0732
H     -1.5089    -1.8841    -2.5181
H     -0.0491    -1.5366    -3.4990
H      2.0153    -1.0551    -2.4323
H      1.7416    -2.8190    -2.3693
H      2.2930    -1.9492    -0.8930
H     -0.2182    -3.6833    -1.4841
H     -1.1793    -2.6723    -0.3422
H      0.5097    -3.1261     0.0750
37
{"conf": 1, "E": 131.96, "rms": -1.0, "geom": "OH", "total_charge": 0, "CA_charge": 2, "smiles": "C[1N:1]1([CH3:2])->[Ru+2:3]2(<-[3H-:4])(<-[4C-:5]#[O+:6])(<-[6H-:7])<-[2N@H:8]([CH2:9][CH2:10]1)[CH2:11][CH2:12][5N:13]->2([CH3:14])[CH3:15]", "smiles3D": "C([1N:1]1([C:2]([H:19])([H:20])[H:21])->[Ru+2:3]2(<-[3H-:4])(<-[4C-:5]#[O+:6])(<-[6H-:7])<-[2N@:8]([H:22])([C:9]([H:23])([H:24])[C:10]1([H:25])[H:26])[C:11]([H:27])([H:28])[C:12]([H:29])([H:30])[5N:13]->2([C:14]([H:31])([H:32])[H:33])[C:15]([H:34])([H:35])[H:36])([H:16])([H:17])[H:18]", "smiles3Dx": "C([1N:1]1([C:2]([H:19])([H:20])[H:21])->[Ru+2:3]2(<-[3H-:4])(<-[4C-:5]#[O+:6])(<-[6H-:7])<-[2N@:8]([H:22])([C:9]([H:23])([H:24])[C:10]1([H:25])[H:26])[C:11]([H:27])([H:28])[C:12]([H:29])([H:30])[5N:13]->2([C:14]([H:31])([H:32])[H:33])[C:15]([H:34])([H:35])[H:36])([H:16])([H:17])[H:18]", "dummies": []}
C      2.8093    -0.1295    -1.2274
N      1.4712    -0.4394    -1.5633
C      1.1090     0.3270    -2.7040
Ru     0.0000     0.0000     0.0000
H     -1.0788    -0.4901    -1.2054
C     -0.3039     2.0722    -0.4662
O     -0.4742     3.2369    -0.7282
H     -1.3955    -0.0511     0.9524
N      0.7214    -1.8754     0.4874
C      0.5182    -2.6125    -0.6414
C      1.2719    -1.8763    -1.8143
C      0.1733    -2.1343     1.7086
C      0.6140    -0.9641     2.6690
N      0.9552     0.2760     1.9527
C      0.3357     1.3990     2.5648
C      2.3492     0.5083     1.9074
H      2.8760     0.9139    -0.8649
H      3.1982    -0.8102    -0.4535
H      3.4703    -0.2305    -2.1208
H      1.2946     1.4095    -2.5250
H      0.0324     0.1962    -2.9342
H      1.6988     0.0093    -3.5960
H      1.6208    -1.8328     0.6107
H     -0.5680    -2.6695    -0.8680
H      0.9215    -3.6447    -0.5204
H      2.2556    -2.3814    -1.9616
H      0.6792    -2.0422    -2.7450
H      0.5357    -3.1098     2.1085
H     -0.9346    -2.1611     1.6303
H      1.4888    -1.3183     3.2638
H     -0.2210    -0.7942     3.3894
H      0.6374     1.4806     3.6357
H     -0.7682     1.3060     2.5206
H      0.6240     2.3390     2.0440
H      2.5719     1.3356     1.2069
H      2.8979    -0.3937     1.5930
H      2.7310     0.7944     2.9162
