43
{"conf": 0, "E": 125.21, "rms": -1.0, "geom": "OH", "total_charge": 0, "CA_charge": 2, "smiles": "C[C:1]#[5N:2]->[Ru+2:3]1(<-[3C-:4]#[O+:5])(<-[4H-:6])(<-[6H-:7])<-[1N:8]([CH3:9])([CH3:10])[CH2:11][CH2:12][NH:13][CH2:14][CH2:15][2N:16]->1([CH3:17])[CH3:18]", "smiles3D": "C([C:1]#[5N:2]->[Ru+2:3]1(<-[3C-:4]#[O+:5])(<-[4H-:6])(<-[6H-:7])<-[1N:8]([C:9]([H:22])([H:23])[H:24])([C:10]([H:25])([H:26])[H:27])[C:11]([H:28])([H:29])[C:12]([H:30])([H:31])[N:13]([H:32])[C:14]([H:33])([H:34])[C:15]([H:35])([H:36])[2N:16]->1([C:17]([H:37])([H:38])[H:39])[C:18]([H:40])([H:41])[H:42])([H:19])([H:20])[H:21]", "smiles3Dx": "C([C:1]#[5N:2]->[Ru+2:3]1(<-[3C-:4]#[O+:5])(<-[4H-:6])(<-[6H-:7])<-[1N:8]([C:9]([H:22])([H:23])[H:24])([C:10]([H:25])([H:26])[H:27])[C:11]([H:28])([H:29])[C:12]([H:30])([H:31])[N:13]([H:32])[C:14]([H:33])([H:34])[C:15]([H:35])([H:36])[2N:16]->1([C:17]([H:37])([H:38])[H:39])[C:18]([H:40])([H:41])[H:42])([H:19])([H:20])[H:21]", "dummies": []}
C      3.0523     0.2765    -3.7415
C      2.1334     0.1926    -2.6074
N      1.3654     0.1204    -1.6506
Ru     0.0000     0.0000     0.0000
C     -1.5854    -0.1181     1.4550
O     -2.4727    -0.1855     2.2689
H     -1.0244    -0.8246    -1.0584
H     -0.7733     1.3650    -0.6199
N      0.7100    -2.0333     0.6297
C      0.8671    -2.0922     2.0479
C     -0.3819    -2.9032     0.2761
C      1.8459    -2.5185    -0.1400
C      3.2580    -1.9301     0.0746
N      3.3482    -1.0850     1.2592
C      3.4071     0.3402     0.9373
C      2.4451     1.0924     1.8466
N      1.1857     1.4867     1.2484
C      0.3329     1.9303     2.2979
C      1.4025     2.6109     0.3838
H      3.1065    -0.7098    -4.2463
H      4.0609     0.5616    -3.3778
H      2.6869     1.0405    -4.4580
H      0.9596    -1.0733     2.4227
H      1.7710    -2.6713     2.3403
H     -0.0073    -2.5487     2.5722
H     -0.2124    -3.9383     0.6611
H     -1.3320    -2.5283     0.7051
H     -0.5100    -2.9620    -0.8286
H      1.9379    -3.6197     0.0366
H      1.6038    -2.3855    -1.2183
H      3.9644    -2.7844     0.1913
H      3.6173    -1.4229    -0.8479
H      4.2059    -1.3433     1.8034
H      4.4415     0.7130     1.1198
H      3.2040     0.5659    -0.1166
H      2.2781     0.4819     2.7583
H      2.9784     2.0096     2.1985
H      0.7955     2.7703     2.8707
H      0.1271     1.0991     3.0064
H     -0.6381     2.2830     1.8848
H      1.9501     3.4320     0.9043
H      1.9898     2.3130    -0.5033
H      0.4371     3.0256     0.0243
43
{"conf": 1, "E": 114.78, "rms": -1.0, "geom": "OH", "total_charge": 0, "CA_charge": 2, "smiles": "C[C:1]#[5N:2]->[Ru+2:3]1(<-[3C-:4]#[O+:5])(<-[4H-:6])(<-[6H-:7])<-[1N:8]([CH3:9])([CH3:10])[CH2:11][CH2:12][NH:13][CH2:14][CH2:15][2N:16]->1([CH3:17])[CH3:18]", "smiles3D": "C([C:1]#[5N:2]->[Ru+2:3]1(<-[3C-:4]#[O+:5])(<-[4H-:6])(<-[6H-:7])<-[1N:8]([C:9]([H:22])([H:23])[H:24])([C:10]([H:25])([H:26])[H:27])[C:11]([H:28])([H:29])[C:12]([H:30])([H:31])[N:13]([H:32])[C:14]([H:33])([H:34])[C:15]([H:35])([H:36])[2N:16]->1([C:17]([H:37])([H:38])[H:39])[C:18]([H:40])([H:41])[H:42])([H:19])([H:20])[H:21]", "smiles3Dx": "C([C:1]#[5N:2]->[Ru+2:3]1(<-[3C-:4]#[O+:5])(<-[4H-:6])(<-[6H-:7])<-[1N:8]([C:9]([H:22])([H:23])[H:24])([C:10]([H:25])([H:26])[H:27])[C:11]([H:28])([H:29])[C:12]([H:30])([H:31])[N:13]([H:32])[C:14]([H:33])([H:34])[C:15]([H:35])([H:36])[2N:16]->1([C:17]([H:37])([H:38])[H:39])[C:18]([H:40])([H:41])[H:42])([H:19])([H:20])[H:21]", "dummies": []}
C     -3.0401     2.4437     2.8645
C     -2.1216     1.7072     1.9973
N     -1.3485     1.0870     1.2710
Ru     0.0000     0.0000     0.0000
C      1.2503    -0.9868    -1.4468
O      1.9518    -1.5395    -2.2572
H      0.2267     1.4293    -0.8683
H     -1.2824    -0.2298    -1.0702
N      1.7819     0.6198     1.2011
C      2.5087     1.5206     0.3603
C      1.3574     1.3700     2.3340
C      2.6043    -0.5405     1.4710
C      2.8502    -0.9742     2.9347
N      1.6161    -1.3079     3.6489
C      0.8935    -2.4316     3.0368
C     -0.4475    -1.9427     2.4209
N     -0.6163    -1.9380     0.9774
C     -2.0292    -2.0026     0.7226
C     -0.0437    -3.0690     0.3199
H     -2.7292     3.5076     2.9131
H     -4.0689     2.3767     2.4551
H     -3.0177     2.0048     3.8831
H      1.9078     2.4247     0.1164
H      2.7735     1.0200    -0.5953
H      3.4508     1.8532     0.8586
H      0.8024     2.2811     2.0165
H      0.6821     0.7813     2.9678
H      2.2295     1.6937     2.9456
H      2.1239    -1.3671     0.9565
H      3.6165    -0.4368     1.0080
H      3.3884    -0.1694     3.4781
H      3.5323    -1.8548     2.9377
H      1.8835    -1.5687     4.6276
H      0.6359    -3.1565     3.8436
H      1.5329    -3.0349     2.3663
H     -1.2394    -2.5823     2.8848
H     -0.6381    -0.9132     2.7712
H     -2.4741    -2.9442     1.1268
H     -2.5453    -1.1420     1.1973
H     -2.2432    -1.9721    -0.3660
H      1.0524    -3.0133     0.2911
H     -0.3944    -3.1354    -0.7359
H     -0.3316    -4.0101     0.8446
43
{"conf": 2, "E": 121.64, "rms": -1.0, "geom": "OH", "total_charge": 0, "CA_charge": 2, "smiles": "C[C:1]#[5N:2]->[Ru+2:3]1(<-[3C-:4]#[O+:5])(<-[4H-:6])(<-[6H-:7])<-[1N:8]([CH3:9])([CH3:10])[CH2:11][CH2:12][NH:13][CH2:14][CH2:15][2N:16]->1([CH3:17])[CH3:18]", "smiles3D": "C([C:1]#[5N:2]->[Ru+2:3]1(<-[3C-:4]#[O+:5])(<-[4H-:6])(<-[6H-:7])<-[1N:8]([C:9]([H:22])([H:23])[H:24])([C:10]([H:25])([H:26])[H:27])[C:11]([H:28])([H:29])[C:12]([H:30])([H:31])[N:13]([H:32])[C:14]([H:33])([H:34])[C:15]([H:35])([H:36])[2N:16]->1([C:17]([H:37])([H:38])[H:39])[C:18]([H:40])([H:41])[H:42])([H:19])([H:20])[H:21]", "smiles3Dx": "C([C:1]#[5N:2]->[Ru+2:3]1(<-[3C-:4]#[O+:5])(<-[4H-:6])(<-[6H-:7])<-[1N:8]([C:9]([H:22])([H:23])[H:24])([C:10]([H:25])([H:26])[H:27])[C:11]([H:28])([H:29])[C:12]([H:30])([H:31])[N:13]([H:32])[C:14]([H:33])([H:34])[C:15]([H:35])([H:36])[2N:16]->1([C:17]([H:37])([H:38])[H:39])[C:18]([H:40])([H:41])[H:42])([H:19])([H:20])[H:21]", "dummies": []}
C      3.9268    -1.8234     2.1812
C      2.7418    -1.2731     1.5247
N      1.7446    -0.8099     0.9753
Ru     0.0000     0.0000     0.0000
C     -1.5467     0.7033    -1.3088
O     -2.4118     1.0963    -2.0517
H      0.0967    -1.3403    -1.0210
H      1.0822     0.7014    -1.0886
N     -1.3935    -1.2884     1.2328
C     -0.5554    -2.1314     2.0159
C     -2.0980    -2.1245     0.3094
C     -2.3262    -0.6573     2.1329
C     -3.3500     0.3203     1.5183
N     -3.2662     1.6475     2.1383
C     -2.2961     2.5034     1.4460
C     -0.8783     2.3421     2.0337
N      0.1726     1.9559     1.1254
C      0.3643     2.9763     0.1406
C      1.3739     1.8653     1.8836
H      4.6350    -2.1971     1.4134
H      4.4171    -1.0306     2.7827
H      3.6259    -2.6593     2.8457
H      0.1582    -2.6822     1.3648
H     -1.1492    -2.8823     2.5910
H      0.0310    -1.5204     2.7375
H     -2.6523    -1.5122    -0.4243
H     -1.3941    -2.7717    -0.2584
H     -2.8262    -2.7877     0.8335
H     -1.7769    -0.1531     2.9374
H     -2.9195    -1.4600     2.6388
H     -4.3650    -0.0915     1.7223
H     -3.3091     0.3779     0.4226
H     -4.2068     2.0982     2.0379
H     -2.6005     3.5639     1.6013
H     -2.3441     2.3769     0.3564
H     -0.6065     3.3315     2.4802
H     -0.9101     1.6426     2.8780
H      1.2940     2.7968    -0.4427
H      0.4435     3.9856     0.6094
H     -0.4787     2.9906    -0.5733
H      2.2321     1.6140     1.2226
H      1.6067     2.8267     2.4021
H      1.2796     1.0661     2.6519
