37
{"conf": 0, "E": 86.63, "rms": -1.0, "geom": "OH", "total_charge": 0, "CA_charge": 2, "smiles": "C[1N:1]1([CH3:2])->[Ru+2:3]2(<-[4H-:4])(<-[5H-:5])(<-[6C-:6]#[O+:7])<-[2N@H:8]([CH2:9][CH2:10]1)[CH2:11][CH2:12][3N:13]->2([CH3:14])[CH3:15]", "smiles3D": "C([1N:1]1([C:2]([H:19])([H:20])[H:21])->[Ru+2:3]2(<-[4H-:4])(<-[5H-:5])(<-[6C-:6]#[O+:7])<-[2N@:8]([H:22])([C:9]([H:23])([H:24])[C:10]1([H:25])[H:26])[C:11]([H:27])([H:28])[C:12]([H:29])([H:30])[3N:13]->2([C:14]([H:31])([H:32])[H:33])[C:15]([H:34])([H:35])[H:36])([H:16])([H:17])[H:18]", "smiles3Dx": "C([1N:1]1([C:2]([H:19])([H:20])[H:21])->[Ru+2:3]2(<-[4H-:4])(<-[5H-:5])(<-[6C-:6]#[O+:7])<-[2N@:8]([H:22])([C:9]([H:23])([H:24])[C:10]1([H:25])[H:26])[C:11]([H:27])([H:28])[C:12]([H:29])([H:30])[3N:13]->2([C:14]([H:31])([H:32])[H:33])[C:15]([H:34])([H:35])[H:36])([H:16])([H:17])[H:18]", "dummies": []}
C      1.0769    -2.7166    -0.8226
N     -0.1816    -2.1304    -0.4884
C     -0.6615    -2.7595     0.6995
Ru     0.0000     0.0000     0.0000
H      1.3853    -0.2354     0.9388
H     -0.9911    -0.3386     1.3234
C     -0.2219     2.0017     0.7486
O     -0.3483     3.1247     1.1696
N     -1.6481     0.2169    -1.3053
C     -2.2279    -1.0617    -1.4112
C     -1.1720    -2.2007    -1.5230
C     -1.2031     0.7747    -2.5347
C      0.1307     1.5497    -2.3960
N      1.1293     0.8020    -1.7021
C      2.1694     1.6403    -1.2084
C      1.7178    -0.1712    -2.5420
H      1.2768    -2.6980    -1.9086
H      1.1460    -3.7840    -0.5051
H      1.8780    -2.1531    -0.3034
H     -0.7597    -3.8627     0.5637
H     -1.6562    -2.3661     0.9908
H      0.0472    -2.5643     1.5355
H     -2.2465     0.7899    -0.9112
H     -2.8530    -1.2453    -0.5098
H     -2.8987    -1.1044    -2.3012
H     -0.7066    -2.1315    -2.5228
H     -1.7068    -3.1795    -1.4827
H     -1.9784     1.4831    -2.9124
H     -1.0700    -0.0109    -3.3094
H      0.4878     1.8310    -3.4153
H     -0.0908     2.4920    -1.8489
H      2.7916     2.0418    -2.0430
H      2.8244     1.0562    -0.5253
H      1.7698     2.5028    -0.6433
H      2.2368     0.3125    -3.4033
H      0.9584    -0.8478    -2.9518
H      2.4685    -0.7633    -1.9802
37
{"conf": 1, "E": 86.63, "rms": -1.0, "geom": "OH", "total_charge": 0, "CA_charge": 2, "smiles": "C[1N:1]1([CH3:2])->[Ru+2:3]2(<-[4H-:4])(<-[5H-:5])(<-[6C-:6]#[O+:7])<-[2N@H:8]([CH2:9][CH2:10]1)[CH2:11][CH2:12][3N:13]->2([CH3:14])[CH3:15]", "smiles3D": "C([1N:1]1([C:2]([H:19])([H:20])[H:21])->[Ru+2:3]2(<-[4H-:4])(<-[5H-:5])(<-[6C-:6]#[O+:7])<-[2N@:8]([H:22])([C:9]([H:23])([H:24])[C:10]1([H:25])[H:26])[C:11]([H:27])([H:28])[C:12]([H:29])([H:30])[3N:13]->2([C:14]([H:31])([H:32])[H:33])[C:15]([H:34])([H:35])[H:36])([H:16])([H:17])[H:18]", "smiles3Dx": "C([1N:1]1([C:2]([H:19])([H:20])[H:21])->[Ru+2:3]2(<-[4H-:4])(<-[5H-:5])(<-[6C-:6]#[O+:7])<-[2N@:8]([H:22])([C:9]([H:23])([H:24])[C:10]1([H:25])[H:26])[C:11]([H:27])([H:28])[C:12]([H:29])([H:30])[3N:13]->2([C:14]([H:31])([H:32])[H:33])[C:15]([H:34])([H:35])[H:36])([H:16])([H:17])[H:18]", "dummies": []}
C     -1.8194     0.4897     2.2342
N     -0.7747    -0.4544     2.0009
C      0.2150    -0.2797     3.0152
Ru     0.0000     0.0000     0.0000
H      0.8023     1.3924     0.5227
H     -1.4274     0.8713    -0.2274
C      0.2901     0.5503    -2.0565
O      0.4509     0.8592    -3.2111
N     -0.9147    -1.8295    -0.5324
C     -1.8510    -2.1031     0.4828
C     -1.3142    -1.7798     1.9082
C      0.0874    -2.8229    -0.7043
C      1.4830    -2.2236    -1.0079
N      1.8438    -1.1860    -0.0964
C      2.2793    -1.7170     1.1394
C      2.8888    -0.3681    -0.6135
H     -2.6363     0.3790     1.4931
H     -2.2634     0.3615     3.2499
H     -1.4123     1.5225     2.1502
H      0.9432     0.4818     2.6708
H      0.7588    -1.2141     3.2406
H     -0.2223     0.0737     3.9789
H     -1.3562    -1.7034    -1.3267
H     -2.1513    -3.1766     0.4463
H     -2.7627    -1.4926     0.3006
H     -2.1505    -1.9104     2.6356
H     -0.5502    -2.5374     2.1602
H     -0.1998    -3.4830    -1.5571
H      0.1744    -3.4682     0.1963
H      2.2372    -3.0460    -0.9858
H      1.4528    -1.8272    -2.0463
H      2.5262    -0.8988     1.8460
H      3.1953    -2.3391     1.0010
H      1.5092    -2.3581     1.5850
H      3.8554    -0.9245    -0.6458
H      3.0149     0.5271     0.0344
H      2.6687    -0.0186    -1.6394
