43
{"conf": 0, "E": 57.28, "rms": -1.0, "geom": "OH", "total_charge": 0, "CA_charge": 2, "smiles": "C[C:1]#[6N:2]->[Ru+2:3]1(<-[3H-:4])(<-[4C-:5]#[O+:6])(<-[5H-:7])<-[1N@H:8]([CH2:9][CH2:10][N:11]([CH3:12])[CH3:13])[CH2:14][CH2:15][2N:16]->1([CH3:17])[CH3:18]", "smiles3D": "C([C:1]#[6N:2]->[Ru+2:3]1(<-[3H-:4])(<-[4C-:5]#[O+:6])(<-[5H-:7])<-[1N@@:8]([C:9]([C:10]([N:11]([C:12]([H:27])([H:28])[H:29])[C:13]([H:30])([H:31])[H:32])([H:25])[H:26])([H:23])[H:24])([H:22])[C:14]([H:33])([H:34])[C:15]([H:35])([H:36])[2N:16]->1([C:17]([H:37])([H:38])[H:39])[C:18]([H:40])([H:41])[H:42])([H:19])([H:20])[H:21]", "smiles3Dx": "C([C:1]#[6N:2]->[Ru+2:3]1(<-[3H-:4])(<-[4C-:5]#[O+:6])(<-[5H-:7])<-[1N@@:8]([C:9]([C:10]([N:11]([C:12]([H:27])([H:28])[H:29])[C:13]([H:30])([H:31])[H:32])([H:25])[H:26])([H:23])[H:24])([H:22])[C:14]([H:33])([H:34])[C:15]([H:35])([H:36])[2N:16]->1([C:17]([H:37])([H:38])[H:39])[C:18]([H:40])([H:41])[H:42])([H:19])([H:20])[H:21]", "dummies": []}
C      4.1489     2.2885     0.9505
C      2.8930     1.5968     0.6618
N      1.8385     1.0145     0.4201
Ru     0.0000     0.0000     0.0000
H     -0.7139     0.7690     1.3252
C     -0.5667     1.6478    -1.2478
O     -0.8852     2.5751    -1.9498
H      0.7032    -0.7303    -1.3517
N     -1.8086    -1.1062    -0.3515
C     -2.9293    -0.2517    -0.3516
C     -4.2799    -0.9779    -0.5260
N     -4.2341    -1.9397    -1.6485
C     -4.3825    -1.2523    -2.9435
C     -5.3032    -2.9401    -1.5004
C     -1.8284    -2.0989     0.6447
C     -0.4219    -2.6873     0.8832
N      0.5437    -1.6904     1.2129
C      0.4930    -1.3032     2.5721
C      1.8523    -2.1080     0.8705
H      3.9589     3.1182     1.6620
H      4.8693     1.5740     1.3992
H      4.5707     2.6972     0.0094
H     -1.7307    -1.5033    -1.1742
H     -2.8226     0.4755    -1.1802
H     -2.9523     0.3205     0.6019
H     -5.0898    -0.2272    -0.6711
H     -4.5054    -1.5010     0.4302
H     -3.5411    -0.5487    -3.1096
H     -5.3435    -0.6936    -2.9994
H     -4.3476    -1.9891    -3.7749
H     -5.1534    -3.5239    -0.5667
H     -5.2732    -3.6656    -2.3420
H     -6.3057    -2.4570    -1.4714
H     -2.5059    -2.9282     0.3343
H     -2.2091    -1.6797     1.6008
H     -0.1244    -3.2146    -0.0532
H     -0.4860    -3.4485     1.6963
H     -0.5332    -0.9992     2.8598
H      0.8131    -2.1410     3.2344
H      1.1674    -0.4353     2.7422
H      1.9337    -2.2550    -0.2271
H      2.0996    -3.0700     1.3772
H      2.6036    -1.3467     1.1730
43
{"conf": 1, "E": 58.44, "rms": -1.0, "geom": "OH", "total_charge": 0, "CA_charge": 2, "smiles": "C[C:1]#[6N:2]->[Ru+2:3]1(<-[3H-:4])(<-[4C-:5]#[O+:6])(<-[5H-:7])<-[1N@H:8]([CH2:9][CH2:10][N:11]([CH3:12])[CH3:13])[CH2:14][CH2:15][2N:16]->1([CH3:17])[CH3:18]", "smiles3D": "C([C:1]#[6N:2]->[Ru+2:3]1(<-[3H-:4])(<-[4C-:5]#[O+:6])(<-[5H-:7])<-[1N@@:8]([C:9]([C:10]([N:11]([C:12]([H:27])([H:28])[H:29])[C:13]([H:30])([H:31])[H:32])([H:25])[H:26])([H:23])[H:24])([H:22])[C:14]([H:33])([H:34])[C:15]([H:35])([H:36])[2N:16]->1([C:17]([H:37])([H:38])[H:39])[C:18]([H:40])([H:41])[H:42])([H:19])([H:20])[H:21]", "smiles3Dx": "C([C:1]#[6N:2]->[Ru+2:3]1(<-[3H-:4])(<-[4C-:5]#[O+:6])(<-[5H-:7])<-[1N@@:8]([C:9]([C:10]([N:11]([C:12]([H:27])([H:28])[H:29])[C:13]([H:30])([H:31])[H:32])([H:25])[H:26])([H:23])[H:24])([H:22])[C:14]([H:33])([H:34])[C:15]([H:35])([H:36])[2N:16]->1([C:17]([H:37])([H:38])[H:39])[C:18]([H:40])([H:41])[H:42])([H:19])([H:20])[H:21]", "dummies": []}
C     -2.4333    -2.1115     3.6020
C     -1.6957    -1.4723     2.5128
N     -1.0771    -0.9359     1.5968
Ru     0.0000     0.0000     0.0000
H     -0.7982     1.4541     0.3273
C      1.5260     0.5301     1.4084
O      2.3822     0.8256     2.2045
H      0.8284    -1.4429    -0.2939
N      0.9878     0.9000    -1.6808
C      1.6318     2.1150    -1.3350
C      3.1586     1.9581    -1.1890
N      3.7905     3.2559    -0.8635
C      3.7579     3.5128     0.5871
C      5.1867     3.2748    -1.3295
C     -0.0273     1.0532    -2.6352
C     -0.9130    -0.2079    -2.7143
N     -1.4954    -0.5409    -1.4530
C     -1.7556    -1.9284    -1.3536
C     -2.6706     0.1980    -1.1812
H     -3.3324    -2.6163     3.1927
H     -1.7831    -2.8600     4.0996
H     -2.7440    -1.3428     4.3391
H      1.5953     0.2928    -2.0009
H      1.2085     2.4688    -0.3759
H      1.4448     2.9028    -2.1043
H      3.5309     1.5809    -2.1683
H      3.4054     1.1811    -0.4339
H      2.7128     3.5418     0.9572
H      4.3213     2.7350     1.1495
H      4.2022     4.5070     0.8088
H      5.7743     2.4462    -0.8740
H      5.2209     3.1795    -2.4362
H      5.6671     4.2444    -1.0746
H     -0.6671     1.9244    -2.3753
H      0.4259     1.2365    -3.6381
H     -1.7082    -0.0393    -3.4786
H     -0.2668    -1.0417    -3.0755
H     -0.8085    -2.5037    -1.4248
H     -2.4337    -2.2579    -2.1751
H     -2.2346    -2.1717    -0.3805
H     -2.4890     1.2860    -1.2925
H     -3.0009     0.0107    -0.1361
H     -3.4926    -0.0960    -1.8746
43
{"conf": 2, "E": 61.38, "rms": -1.0, "geom": "OH", "total_charge": 0, "CA_charge": 2, "smiles": "C[C:1]#[6N:2]->[Ru+2:3]1(<-[3H-:4])(<-[4C-:5]#[O+:6])(<-[5H-:7])<-[1N@H:8]([CH2:9][CH2:10][N:11]([CH3:12])[CH3:13])[CH2:14][CH2:15][2N:16]->1([CH3:17])[CH3:18]", "smiles3D": "C([C:1]#[6N:2]->[Ru+2:3]1(<-[3H-:4])(<-[4C-:5]#[O+:6])(<-[5H-:7])<-[1N@@:8]([C:9]([C:10]([N:11]([C:12]([H:27])([H:28])[H:29])[C:13]([H:30])([H:31])[H:32])([H:25])[H:26])([H:23])[H:24])([H:22])[C:14]([H:33])([H:34])[C:15]([H:35])([H:36])[2N:16]->1([C:17]([H:37])([H:38])[H:39])[C:18]([H:40])([H:41])[H:42])([H:19])([H:20])[H:21]", "smiles3Dx": "C([C:1]#[6N:2]->[Ru+2:3]1(<-[3H-:4])(<-[4C-:5]#[O+:6])(<-[5H-:7])<-[1N@@:8]([C:9]([C:10]([N:11]([C:12]([H:27])([H:28])[H:29])[C:13]([H:30])([H:31])[H:32])([H:25])[H:26])([H:23])[H:24])([H:22])[C:14]([H:33])([H:34])[C:15]([H:35])([H:36])[2N:16]->1([C:17]([H:37])([H:38])[H:39])[C:18]([H:40])([H:41])[H:42])([H:19])([H:20])[H:21]", "dummies": []}
C      0.8013    -4.4298     1.7574
C      0.5602    -3.0889     1.2257
N      0.3563    -1.9629     0.7785
Ru     0.0000     0.0000     0.0000
H     -0.6470     0.4629     1.4919
C      1.9528     0.5651     0.6768
O      3.0539     0.8748     1.0585
H      0.6888    -0.4535    -1.4746
N     -0.4705     1.9279    -0.8215
C      0.0149     2.9904    -0.0149
C      1.2830     3.6555    -0.6111
N      1.8146     4.7911     0.1775
C      0.8871     5.9313     0.2482
C      2.2784     4.3990     1.5167
C     -1.8667     1.9149    -0.9554
C     -2.3617     0.5700    -1.5270
N     -1.9531    -0.5415    -0.7284
C     -2.8009    -0.7588     0.3829
C     -1.8479    -1.7221    -1.5018
H      1.7655    -4.4422     2.3061
H     -0.0213    -4.7067     2.4484
H      0.8422    -5.1572     0.9208
H     -0.1016     1.9663    -1.6596
H     -0.7635     3.7777     0.1102
H      0.2536     2.5812     0.9850
H      1.0453     4.0115    -1.6371
H      2.0775     2.8913    -0.7354
H      0.0514     5.7369     0.9548
H      1.4347     6.8329     0.5960
H      0.4724     6.1627    -0.7565
H      1.4288     4.1473     2.1871
H      2.9668     3.5312     1.4492
H      2.8487     5.2357     1.9736
H     -2.3465     2.0813     0.0335
H     -2.1843     2.7348    -1.6423
H     -1.9484     0.4789    -2.5586
H     -3.4739     0.6034    -1.6084
H     -2.9196     0.1688     0.9782
H     -2.3629    -1.5373     1.0450
H     -3.8099    -1.0974     0.0509
H     -2.8209    -1.9532    -1.9950
H     -1.5597    -2.5869    -0.8659
H     -1.0734    -1.5994    -2.2881
43
{"conf": 3, "E": 67.58, "rms": -1.0, "geom": "OH", "total_charge": 0, "CA_charge": 2, "smiles": "C[C:1]#[6N:2]->[Ru+2:3]1(<-[3H-:4])(<-[4C-:5]#[O+:6])(<-[5H-:7])<-[1N@H:8]([CH2:9][CH2:10][N:11]([CH3:12])[CH3:13])[CH2:14][CH2:15][2N:16]->1([CH3:17])[CH3:18]", "smiles3D": "C([C:1]#[6N:2]->[Ru+2:3]1(<-[3H-:4])(<-[4C-:5]#[O+:6])(<-[5H-:7])<-[1N@@:8]([C:9]([C:10]([N:11]([C:12]([H:27])([H:28])[H:29])[C:13]([H:30])([H:31])[H:32])([H:25])[H:26])([H:23])[H:24])([H:22])[C:14]([H:33])([H:34])[C:15]([H:35])([H:36])[2N:16]->1([C:17]([H:37])([H:38])[H:39])[C:18]([H:40])([H:41])[H:42])([H:19])([H:20])[H:21]", "smiles3Dx": "C([C:1]#[6N:2]->[Ru+2:3]1(<-[3H-:4])(<-[4C-:5]#[O+:6])(<-[5H-:7])<-[1N@@:8]([C:9]([C:10]([N:11]([C:12]([H:27])([H:28])[H:29])[C:13]([H:30])([H:31])[H:32])([H:25])[H:26])([H:23])[H:24])([H:22])[C:14]([H:33])([H:34])[C:15]([H:35])([H:36])[2N:16]->1([C:17]([H:37])([H:38])[H:39])[C:18]([H:40])([H:41])[H:42])([H:19])([H:20])[H:21]", "dummies": []}
C     -1.5410    -0.6019    -4.5410
C     -1.0754    -0.4193    -3.1665
N     -0.6830    -0.2669    -2.0123
Ru     0.0000     0.0000     0.0000
H      1.0607     1.1853    -0.5445
C     -1.5252     1.4744     0.2972
O     -2.3834     2.3049     0.4645
H     -1.0913    -1.1920     0.4965
N      0.7149     0.1362     2.0302
C      0.7205     1.4411     2.5978
C      1.4612     2.5533     1.8259
N      2.8931     2.2499     1.6129
C      3.4059     2.9897     0.4474
C      3.6927     2.6115     2.7986
C      1.9234    -0.6119     2.1320
C      2.5299    -0.9835     0.7550
N      1.5719    -1.4369    -0.1938
C      2.0947    -1.3961    -1.5076
C      1.0620    -2.7188     0.1057
H     -2.5206    -1.1225    -4.5334
H     -0.8029    -1.2103    -5.1031
H     -1.6519     0.3885    -5.0283
H      0.0862    -0.3266     2.5142
H      1.1470     1.3819     3.6251
H     -0.3398     1.7666     2.7073
H      1.3469     3.5049     2.3943
H      0.9294     2.7423     0.8743
H      3.2697     4.0871     0.5748
H      2.8826     2.6666    -0.4763
H      4.4855     2.7722     0.2964
H      3.6564     3.7066     2.9948
H      3.3299     2.0768     3.6999
H      4.7513     2.3080     2.6494
H      2.6921    -0.0542     2.7076
H      1.7301    -1.5604     2.6894
H      3.0354    -0.0745     0.3588
H      3.3110    -1.7648     0.9105
H      2.2918    -0.3438    -1.8048
H      3.0491    -1.9695    -1.5671
H      1.3768    -1.8320    -2.2365
H      0.6098    -2.7329     1.1184
H      0.2697    -2.9940    -0.6256
H      1.8706    -3.4848     0.0638
