43
{"conf": 0, "E": 61.3, "rms": -1.0, "geom": "OH", "total_charge": 0, "CA_charge": 2, "smiles": "C[C:1]#[3N:2]->[Ru+2:3]1(<-[4H-:4])(<-[5H-:5])(<-[6C-:6]#[O+:7])<-[1N@H:8]([CH2:9][CH2:10][N:11]([CH3:12])[CH3:13])[CH2:14][CH2:15][2N:16]->1([CH3:17])[CH3:18]", "smiles3D": "C([C:1]#[3N:2]->[Ru+2:3]1(<-[4H-:4])(<-[5H-:5])(<-[6C-:6]#[O+:7])<-[1N@@:8]([C:9]([C:10]([N:11]([C:12]([H:27])([H:28])[H:29])[C:13]([H:30])([H:31])[H:32])([H:25])[H:26])([H:23])[H:24])([H:22])[C:14]([H:33])([H:34])[C:15]([H:35])([H:36])[2N:16]->1([C:17]([H:37])([H:38])[H:39])[C:18]([H:40])([H:41])[H:42])([H:19])([H:20])[H:21]", "smiles3Dx": "C([C:1]#[3N:2]->[Ru+2:3]1(<-[4H-:4])(<-[5H-:5])(<-[6C-:6]#[O+:7])<-[1N@@:8]([C:9]([C:10]([N:11]([C:12]([H:27])([H:28])[H:29])[C:13]([H:30])([H:31])[H:32])([H:25])[H:26])([H:23])[H:24])([H:22])[C:14]([H:33])([H:34])[C:15]([H:35])([H:36])[2N:16]->1([C:17]([H:37])([H:38])[H:39])[C:18]([H:40])([H:41])[H:42])([H:19])([H:20])[H:21]", "dummies": []}
C      3.2035    -0.0568     3.6263
C      2.2345    -0.0376     2.5316
N      1.4222    -0.0210     1.6097
Ru     0.0000     0.0000     0.0000
H     -0.0091    -1.6878     0.0158
H     -1.1693    -0.0569    -1.2188
C     -1.5749     0.0085     1.4528
O     -2.4611     0.0137     2.2705
N      1.5122     0.0496    -1.5328
C      2.7769    -0.4043    -1.1015
C      2.7896    -1.8956    -0.7108
N      2.1803    -2.7494    -1.7543
C      3.0876    -2.9172    -2.9039
C      1.8568    -4.0721    -1.1942
C      1.5113     1.3779    -2.0140
C      1.2666     2.4121    -0.8891
N      0.0748     2.1564    -0.1460
C     -1.0915     2.5928    -0.8221
C      0.1293     2.7566     1.1387
H      2.7863    -0.6302     4.4794
H      4.1415    -0.5377     3.2802
H      3.4176     0.9830     3.9482
H      1.2267    -0.4935    -2.2122
H      3.1071     0.1939    -0.2281
H      3.5237    -0.2548    -1.9143
H      3.8378    -2.2095    -0.5025
H      2.2401    -2.0068     0.2448
H      2.6333    -3.5958    -3.6580
H      4.0692    -3.3372    -2.5900
H      3.2500    -1.9469    -3.4160
H      1.1200    -3.9708    -0.3688
H      2.7688    -4.5793    -0.8063
H      1.3851    -4.7147    -1.9688
H      2.4779     1.6218    -2.5137
H      0.7084     1.4875    -2.7763
H      2.1519     2.3811    -0.2141
H      1.2254     3.4297    -1.3446
H     -1.9959     2.2820    -0.2541
H     -1.1550     2.1462    -1.8336
H     -1.0995     3.7029    -0.9265
H      1.0132     2.4044     1.7051
H     -0.7795     2.5070     1.7261
H      0.1962     3.8659     1.0459
43
{"conf": 1, "E": 59.34, "rms": -1.0, "geom": "OH", "total_charge": 0, "CA_charge": 2, "smiles": "C[C:1]#[3N:2]->[Ru+2:3]1(<-[4H-:4])(<-[5H-:5])(<-[6C-:6]#[O+:7])<-[1N@H:8]([CH2:9][CH2:10][N:11]([CH3:12])[CH3:13])[CH2:14][CH2:15][2N:16]->1([CH3:17])[CH3:18]", "smiles3D": "C([C:1]#[3N:2]->[Ru+2:3]1(<-[4H-:4])(<-[5H-:5])(<-[6C-:6]#[O+:7])<-[1N@@:8]([C:9]([C:10]([N:11]([C:12]([H:27])([H:28])[H:29])[C:13]([H:30])([H:31])[H:32])([H:25])[H:26])([H:23])[H:24])([H:22])[C:14]([H:33])([H:34])[C:15]([H:35])([H:36])[2N:16]->1([C:17]([H:37])([H:38])[H:39])[C:18]([H:40])([H:41])[H:42])([H:19])([H:20])[H:21]", "smiles3Dx": "C([C:1]#[3N:2]->[Ru+2:3]1(<-[4H-:4])(<-[5H-:5])(<-[6C-:6]#[O+:7])<-[1N@@:8]([C:9]([C:10]([N:11]([C:12]([H:27])([H:28])[H:29])[C:13]([H:30])([H:31])[H:32])([H:25])[H:26])([H:23])[H:24])([H:22])[C:14]([H:33])([H:34])[C:15]([H:35])([H:36])[2N:16]->1([C:17]([H:37])([H:38])[H:39])[C:18]([H:40])([H:41])[H:42])([H:19])([H:20])[H:21]", "dummies": []}
C     -0.2388    -3.6555    -3.1625
C     -0.1657    -2.5519    -2.2060
N     -0.1034    -1.6231    -1.4040
Ru     0.0000     0.0000     0.0000
H     -1.4108    -0.5918     0.7145
H      0.0271     1.2258     1.1621
C      1.1709    -1.2407     1.2968
O      1.8304    -1.9390     2.0260
N     -1.0892     1.2995    -1.3003
C     -2.3340     0.7469    -1.6677
C     -3.4671     1.1593    -0.7099
N     -3.7317     2.6126    -0.8036
C     -4.2421     3.1259     0.4779
C     -4.7040     2.9075    -1.8710
C     -0.2129     1.5171    -2.3657
C      1.1951     1.8801    -1.8414
N      1.7307     0.8636    -0.9839
C      2.4223    -0.1370    -1.7103
C      2.5801     1.4157     0.0049
H      0.6313    -3.6070    -3.8490
H     -0.2255    -4.6204    -2.6155
H     -1.1773    -3.5748    -3.7485
H     -1.2128     2.0953    -0.8626
H     -2.2497    -0.3568    -1.6482
H     -2.6134     1.0523    -2.7019
H     -4.3818     0.5639    -0.9328
H     -3.1447     0.8805     0.3165
H     -3.4742     2.9999     1.2712
H     -4.4532     4.2147     0.4025
H     -5.1717     2.5945     0.7823
H     -4.3320     2.5468    -2.8518
H     -4.8452     4.0059    -1.9649
H     -5.6901     2.4349    -1.6629
H     -0.1416     0.6024    -2.9928
H     -0.5880     2.3547    -3.0000
H      1.8678     2.0530    -2.7150
H      1.1024     2.8462    -1.2921
H      3.4052     0.2435    -2.0751
H      1.8338    -0.4695    -2.5903
H      2.6022    -1.0178    -1.0580
H      3.0123     0.6141     0.6427
H      2.0106     2.1087     0.6590
H      3.4156     1.9829    -0.4683
43
{"conf": 2, "E": 59.99, "rms": -1.0, "geom": "OH", "total_charge": 0, "CA_charge": 2, "smiles": "C[C:1]#[3N:2]->[Ru+2:3]1(<-[4H-:4])(<-[5H-:5])(<-[6C-:6]#[O+:7])<-[1N@H:8]([CH2:9][CH2:10][N:11]([CH3:12])[CH3:13])[CH2:14][CH2:15][2N:16]->1([CH3:17])[CH3:18]", "smiles3D": "C([C:1]#[3N:2]->[Ru+2:3]1(<-[4H-:4])(<-[5H-:5])(<-[6C-:6]#[O+:7])<-[1N@@:8]([C:9]([C:10]([N:11]([C:12]([H:27])([H:28])[H:29])[C:13]([H:30])([H:31])[H:32])([H:25])[H:26])([H:23])[H:24])([H:22])[C:14]([H:33])([H:34])[C:15]([H:35])([H:36])[2N:16]->1([C:17]([H:37])([H:38])[H:39])[C:18]([H:40])([H:41])[H:42])([H:19])([H:20])[H:21]", "smiles3Dx": "C([C:1]#[3N:2]->[Ru+2:3]1(<-[4H-:4])(<-[5H-:5])(<-[6C-:6]#[O+:7])<-[1N@@:8]([C:9]([C:10]([N:11]([C:12]([H:27])([H:28])[H:29])[C:13]([H:30])([H:31])[H:32])([H:25])[H:26])([H:23])[H:24])([H:22])[C:14]([H:33])([H:34])[C:15]([H:35])([H:36])[2N:16]->1([C:17]([H:37])([H:38])[H:39])[C:18]([H:40])([H:41])[H:42])([H:19])([H:20])[H:21]", "dummies": []}
C     -1.3277    -4.1838    -2.0371
C     -0.9265    -2.9220    -1.4170
N     -0.5868    -1.8603    -0.9000
Ru     0.0000     0.0000     0.0000
H     -1.2536     0.7708    -0.8281
H      0.3642     1.4839     0.7222
C     -1.3408    -0.4129     1.6195
O     -2.0951    -0.6455     2.5312
N      1.4136     0.4727    -1.5535
C      1.1911    -0.2274    -2.7567
C     -0.1479     0.1497    -3.4163
N     -0.1955    -0.3221    -4.8177
C     -0.5106    -1.7605    -4.8830
C     -1.2104     0.4331    -5.5705
C      2.6840     0.2443    -0.9811
C      2.6937    -0.9851    -0.0409
N      1.6983    -0.9132     0.9805
C      1.3721    -2.2025     1.4751
C      2.0856    -0.0779     2.0575
H     -0.5404    -4.5126    -2.7462
H     -2.2811    -4.0389    -2.5853
H     -1.4646    -4.9549    -1.2515
H      1.3382     1.3706    -1.7255
H      1.2097    -1.3176    -2.5618
H      2.0080     0.0121    -3.4781
H     -1.0061    -0.2492    -2.8387
H     -0.2230     1.2593    -3.3863
H     -0.5424    -2.0987    -5.9412
H      0.2812    -2.3565    -4.3849
H     -1.4911    -1.9839    -4.4062
H     -1.2520     0.0809    -6.6240
H     -0.9403     1.5106    -5.6017
H     -2.2180     0.3234    -5.1100
H      2.9841     1.1409    -0.3949
H      3.4554     0.0910    -1.7717
H      3.7078    -1.0754     0.4153
H      2.5284    -1.8863    -0.6739
H      0.5595    -2.1381     2.2291
H      2.2632    -2.6708     1.9550
H      1.0318    -2.8676     0.6576
H      1.2415     0.0308     2.7735
H      2.3591     0.9332     1.6975
H      2.9605    -0.5068     2.5997
43
{"conf": 3, "E": 70.07, "rms": -1.0, "geom": "OH", "total_charge": 0, "CA_charge": 2, "smiles": "C[C:1]#[3N:2]->[Ru+2:3]1(<-[4H-:4])(<-[5H-:5])(<-[6C-:6]#[O+:7])<-[1N@H:8]([CH2:9][CH2:10][N:11]([CH3:12])[CH3:13])[CH2:14][CH2:15][2N:16]->1([CH3:17])[CH3:18]", "smiles3D": "C([C:1]#[3N:2]->[Ru+2:3]1(<-[4H-:4])(<-[5H-:5])(<-[6C-:6]#[O+:7])<-[1N@@:8]([C:9]([C:10]([N:11]([C:12]([H:27])([H:28])[H:29])[C:13]([H:30])([H:31])[H:32])([H:25])[H:26])([H:23])[H:24])([H:22])[C:14]([H:33])([H:34])[C:15]([H:35])([H:36])[2N:16]->1([C:17]([H:37])([H:38])[H:39])[C:18]([H:40])([H:41])[H:42])([H:19])([H:20])[H:21]", "smiles3Dx": "C([C:1]#[3N:2]->[Ru+2:3]1(<-[4H-:4])(<-[5H-:5])(<-[6C-:6]#[O+:7])<-[1N@@:8]([C:9]([C:10]([N:11]([C:12]([H:27])([H:28])[H:29])[C:13]([H:30])([H:31])[H:32])([H:25])[H:26])([H:23])[H:24])([H:22])[C:14]([H:33])([H:34])[C:15]([H:35])([H:36])[2N:16]->1([C:17]([H:37])([H:38])[H:39])[C:18]([H:40])([H:41])[H:42])([H:19])([H:20])[H:21]", "dummies": []}
C      1.5953     4.5464    -0.4135
C      1.1128     3.1719    -0.2891
N      0.7134     2.0142    -0.1870
Ru     0.0000     0.0000     0.0000
H      0.1574     0.1417     1.6766
H     -0.6105    -1.5582     0.2386
C     -1.9991     0.7597     0.1325
O     -3.1242     1.1874     0.2068
N      1.9642    -0.8467    -0.1833
C      2.9477    -0.0802     0.5042
C      3.7110     1.0090    -0.2892
N      4.9717     0.4789    -0.8586
C      6.0809     0.6006     0.1044
C      5.3197     1.1933    -2.0978
C      2.1727    -1.1819    -1.5482
C      1.2921    -0.3605    -2.5298
N     -0.0770    -0.2743    -2.1387
C     -0.7871    -1.4696    -2.4009
C     -0.7245     0.8187    -2.7688
H      2.6934     4.5378    -0.5721
H      1.1003     5.0349    -1.2778
H      1.3595     5.1066     0.5144
H      1.9066    -1.6403     0.2758
H      2.4253     0.4217     1.3452
H      3.6973    -0.7771     0.9493
H      3.0549     1.4119    -1.0774
H      3.9187     1.8720     0.3849
H      6.3121     1.6673     0.3231
H      6.9918     0.1112    -0.3024
H      5.8332     0.0877     1.0570
H      4.5358     1.0248    -2.8674
H      6.2730     0.8025    -2.5150
H      5.4215     2.2869    -1.9164
H      1.9349    -2.2616    -1.6995
H      3.2356    -1.0478    -1.8315
H      1.3694    -0.8236    -3.5421
H      1.7233     0.6595    -2.6007
H     -0.8562    -1.6596    -3.4974
H     -1.8167    -1.3960    -1.9855
H     -0.2879    -2.3369    -1.9232
H     -0.6487     0.7276    -3.8776
H     -0.2586     1.7764    -2.4646
H     -1.8005     0.8550    -2.4932
