37
{"conf": 0, "E": 70.62, "rms": -1.0, "geom": "OH", "total_charge": 0, "CA_charge": 2, "smiles": "C[1N:1]1([CH3:2])->[Ru+2:3]2(<-[3H-:4])(<-[4H-:5])(<-[5C-:6]#[O+:7])<-[2N@H:8]([CH2:9][CH2:10]1)[CH2:11][CH2:12][6N:13]->2([CH3:14])[CH3:15]", "smiles3D": "C([1N:1]1([C:2]([H:19])([H:20])[H:21])->[Ru+2:3]2(<-[3H-:4])(<-[4H-:5])(<-[5C-:6]#[O+:7])<-[2N@:8]([H:22])([C:9]([H:23])([H:24])[C:10]1([H:25])[H:26])[C:11]([H:27])([H:28])[C:12]([H:29])([H:30])[6N:13]->2([C:14]([H:31])([H:32])[H:33])[C:15]([H:34])([H:35])[H:36])([H:16])([H:17])[H:18]", "smiles3Dx": "C([1N:1]1([C:2]([H:19])([H:20])[H:21])->[Ru+2:3]2(<-[3H-:4])(<-[4H-:5])(<-[5C-:6]#[O+:7])<-[2N@:8]([H:22])([C:9]([H:23])([H:24])[C:10]1([H:25])[H:26])[C:11]([H:27])([H:28])[C:12]([H:29])([H:30])[6N:13]->2([C:14]([H:31])([H:32])[H:33])[C:15]([H:34])([H:35])[H:36])([H:16])([H:17])[H:18]", "dummies": []}
C     -0.5800     2.7053    -1.0985
N     -1.2193     1.7315    -0.2982
C     -1.5468     2.2574     0.9682
Ru     0.0000     0.0000     0.0000
H     -1.3374    -0.6629     0.7945
H      0.6222     0.4715     1.4992
C      1.7211     0.8654    -0.9665
O      2.6837     1.3500    -1.5077
N     -0.7797    -0.5693    -1.8516
C     -1.9780     0.1556    -2.0939
C     -2.3505     1.1606    -0.9576
C     -0.8730    -1.9576    -1.7529
C      0.4678    -2.5529    -1.2342
N      0.8676    -1.9785     0.0217
C      2.2730    -1.8980     0.1720
C      0.3092    -2.6702     1.1244
H      0.3278     3.0928    -0.5856
H     -1.2656     3.5616    -1.2967
H     -0.2719     2.2674    -2.0716
H     -1.9508     1.4561     1.6237
H     -2.3111     3.0633     0.8739
H     -0.6400     2.6772     1.4583
H     -0.1625    -0.3596    -2.4973
H     -2.8356    -0.5431    -2.2348
H     -1.8650     0.7349    -3.0417
H     -2.9701     0.6056    -0.2165
H     -2.9902     1.9661    -1.3898
H     -1.1030    -2.3934    -2.7527
H     -1.6874    -2.2322    -1.0486
H      0.3548    -3.6590    -1.1419
H      1.2378    -2.3590    -2.0150
H      2.5177    -1.2709     1.0575
H      2.7479    -1.4400    -0.7195
H      2.7155    -2.9111     0.3148
H      0.7861    -3.6695     1.2560
H      0.4611    -2.0753     2.0519
H     -0.7817    -2.8232     0.9851
37
{"conf": 1, "E": 70.62, "rms": -1.0, "geom": "OH", "total_charge": 0, "CA_charge": 2, "smiles": "C[1N:1]1([CH3:2])->[Ru+2:3]2(<-[3H-:4])(<-[4H-:5])(<-[5C-:6]#[O+:7])<-[2N@H:8]([CH2:9][CH2:10]1)[CH2:11][CH2:12][6N:13]->2([CH3:14])[CH3:15]", "smiles3D": "C([1N:1]1([C:2]([H:19])([H:20])[H:21])->[Ru+2:3]2(<-[3H-:4])(<-[4H-:5])(<-[5C-:6]#[O+:7])<-[2N@:8]([H:22])([C:9]([H:23])([H:24])[C:10]1([H:25])[H:26])[C:11]([H:27])([H:28])[C:12]([H:29])([H:30])[6N:13]->2([C:14]([H:31])([H:32])[H:33])[C:15]([H:34])([H:35])[H:36])([H:16])([H:17])[H:18]", "smiles3Dx": "C([1N:1]1([C:2]([H:19])([H:20])[H:21])->[Ru+2:3]2(<-[3H-:4])(<-[4H-:5])(<-[5C-:6]#[O+:7])<-[2N@:8]([H:22])([C:9]([H:23])([H:24])[C:10]1([H:25])[H:26])[C:11]([H:27])([H:28])[C:12]([H:29])([H:30])[6N:13]->2([C:14]([H:31])([H:32])[H:33])[C:15]([H:34])([H:35])[H:36])([H:16])([H:17])[H:18]", "dummies": []}
C      0.8048     1.4245     2.3977
N     -0.4224     1.0365     1.8224
C     -1.2606     2.1562     1.6197
Ru     0.0000     0.0000     0.0000
H      0.7989    -1.1351     0.9657
H      1.4846     0.7515    -0.2969
C     -0.9730     1.4741    -1.2351
O     -1.5178     2.2991    -1.9257
N     -1.8346    -0.9210     0.3823
C     -2.1447    -0.7840     1.7627
C     -1.0750     0.0131     2.5755
C     -1.6609    -2.2125    -0.1157
C     -1.0789    -2.1607    -1.5578
N      0.1520    -1.4204    -1.6208
C      1.2782    -2.2384    -1.3586
C      0.3302    -0.7449    -2.8521
H      0.6480     1.8252     3.4259
H      1.4943     0.5548     2.4539
H      1.2917     2.2090     1.7763
H     -0.7491     2.9129     0.9848
H     -1.5221     2.6316     2.5934
H     -2.2004     1.8514     1.1122
H     -2.4765    -0.4956    -0.1165
H     -2.2663    -1.7857     2.2372
H     -3.1204    -0.2504     1.8629
H     -0.3188    -0.7219     2.9346
H     -1.5662     0.4526     3.4757
H     -0.9616    -2.7779     0.5368
H     -2.6400    -2.7448    -0.1365
H     -1.8512    -1.6901    -2.2077
H     -0.9278    -3.2054    -1.9191
H      1.1224    -2.8455    -0.4421
H      2.1745    -1.5982    -1.2031
H      1.4763    -2.9344    -2.2068
H      1.1849    -0.0379    -2.7689
H     -0.5741    -0.1652    -3.1282
H      0.5395    -1.4677    -3.6746
