43
{"conf": 0, "E": 58.33, "rms": -1.0, "geom": "OH", "total_charge": 0, "CA_charge": 2, "smiles": "C[C:1]#[4N:2]->[Ru+2:3]1(<-[3H-:4])(<-[5H-:5])(<-[6C-:6]#[O+:7])<-[1N@H:8]([CH2:9][CH2:10][N:11]([CH3:12])[CH3:13])[CH2:14][CH2:15][2N:16]->1([CH3:17])[CH3:18]", "smiles3D": "C([C:1]#[4N:2]->[Ru+2:3]1(<-[3H-:4])(<-[5H-:5])(<-[6C-:6]#[O+:7])<-[1N@@:8]([C:9]([C:10]([N:11]([C:12]([H:27])([H:28])[H:29])[C:13]([H:30])([H:31])[H:32])([H:25])[H:26])([H:23])[H:24])([H:22])[C:14]([H:33])([H:34])[C:15]([H:35])([H:36])[2N:16]->1([C:17]([H:37])([H:38])[H:39])[C:18]([H:40])([H:41])[H:42])([H:19])([H:20])[H:21]", "smiles3Dx": "C([C:1]#[4N:2]->[Ru+2:3]1(<-[3H-:4])(<-[5H-:5])(<-[6C-:6]#[O+:7])<-[1N@@:8]([C:9]([C:10]([N:11]([C:12]([H:27])([H:28])[H:29])[C:13]([H:30])([H:31])[H:32])([H:25])[H:26])([H:23])[H:24])([H:22])[C:14]([H:33])([H:34])[C:15]([H:35])([H:36])[2N:16]->1([C:17]([H:37])([H:38])[H:39])[C:18]([H:40])([H:41])[H:42])([H:19])([H:20])[H:21]", "dummies": []}
C      1.9858     0.5381     4.3739
C      1.3825     0.3767     3.0517
N      0.8792     0.2376     1.9395
Ru     0.0000     0.0000     0.0000
H      0.9344     1.2892    -0.5689
H     -0.9179    -1.2801     0.6109
C     -1.5318     1.3821     0.5804
O     -2.3937     2.1598     0.9068
N      1.4840    -1.3944    -0.6676
C      2.7665    -1.0713    -0.1620
C      3.1923    -1.9813     1.0064
N      3.4011    -3.3692     0.5367
C      3.1149    -4.3265     1.6175
C      4.7821    -3.5666     0.0617
C      1.3944    -1.3501    -2.0636
C     -0.0788    -1.3776    -2.5225
N     -0.8401    -0.3026    -1.9653
C     -0.7037     0.8969    -2.7035
C     -2.2067    -0.6502    -1.8420
H      2.8463    -0.1553     4.4733
H      1.2325     0.3074     5.1549
H      2.3369     1.5834     4.4951
H      1.2258    -2.2281    -0.3876
H      3.5446    -1.1358    -0.9573
H      2.7415    -0.0237     0.1988
H      2.3822    -1.9405     1.7655
H      4.1086    -1.5708     1.4889
H      3.2861    -5.3678     1.2682
H      3.7540    -4.1307     2.5077
H      2.0462    -4.2570     1.9142
H      5.0162    -2.8677    -0.7673
H      4.9030    -4.5953    -0.3412
H      5.5187    -3.4129     0.8820
H      1.8732    -0.4233    -2.4477
H      1.9242    -2.2288    -2.5020
H     -0.1069    -1.3401    -3.6373
H     -0.5036    -2.3589    -2.2059
H     -1.1964     1.7333    -2.1621
H     -1.1727     0.7975    -3.7101
H      0.3652     1.1590    -2.8382
H     -2.3242    -1.5021    -1.1394
H     -2.6246    -0.9465    -2.8325
H     -2.7995     0.2047    -1.4504
43
{"conf": 1, "E": 58.54, "rms": -1.0, "geom": "OH", "total_charge": 0, "CA_charge": 2, "smiles": "C[C:1]#[4N:2]->[Ru+2:3]1(<-[3H-:4])(<-[5H-:5])(<-[6C-:6]#[O+:7])<-[1N@H:8]([CH2:9][CH2:10][N:11]([CH3:12])[CH3:13])[CH2:14][CH2:15][2N:16]->1([CH3:17])[CH3:18]", "smiles3D": "C([C:1]#[4N:2]->[Ru+2:3]1(<-[3H-:4])(<-[5H-:5])(<-[6C-:6]#[O+:7])<-[1N@@:8]([C:9]([C:10]([N:11]([C:12]([H:27])([H:28])[H:29])[C:13]([H:30])([H:31])[H:32])([H:25])[H:26])([H:23])[H:24])([H:22])[C:14]([H:33])([H:34])[C:15]([H:35])([H:36])[2N:16]->1([C:17]([H:37])([H:38])[H:39])[C:18]([H:40])([H:41])[H:42])([H:19])([H:20])[H:21]", "smiles3Dx": "C([C:1]#[4N:2]->[Ru+2:3]1(<-[3H-:4])(<-[5H-:5])(<-[6C-:6]#[O+:7])<-[1N@@:8]([C:9]([C:10]([N:11]([C:12]([H:27])([H:28])[H:29])[C:13]([H:30])([H:31])[H:32])([H:25])[H:26])([H:23])[H:24])([H:22])[C:14]([H:33])([H:34])[C:15]([H:35])([H:36])[2N:16]->1([C:17]([H:37])([H:38])[H:39])[C:18]([H:40])([H:41])[H:42])([H:19])([H:20])[H:21]", "dummies": []}
C      4.3284    -0.7446     2.0182
C      3.0185    -0.5192     1.4079
N      1.9179    -0.3315     0.8949
Ru     0.0000     0.0000     0.0000
H      0.6725    -0.2934    -1.5228
H     -0.6290     0.2884     1.5414
C      0.5086     2.0732    -0.1908
O      0.7947     3.2398    -0.2984
N     -0.5905    -2.0582     0.1503
C      0.4931    -2.9053    -0.1498
C      0.1590    -4.4110    -0.0618
N     -0.4915    -4.8965    -1.2998
C     -1.3715    -6.0383    -1.0033
C      0.5106    -5.2999    -2.3025
C     -1.6972    -2.1833    -0.7053
C     -2.6285    -0.9574    -0.6020
N     -1.9536     0.2721    -0.8664
C     -2.6055     1.3590    -0.2341
C     -1.8040     0.5272    -2.2498
H      5.1038    -0.2004     1.4409
H      4.5566    -1.8303     2.0123
H      4.3177    -0.3745     3.0640
H     -0.8580    -2.2065     1.0156
H      0.8827    -2.6664    -1.1618
H      1.2998    -2.7005     0.5823
H      1.0895    -4.9861     0.1503
H     -0.5021    -4.5477     0.8230
H     -2.1902    -5.7221    -0.3217
H     -0.8047    -6.8707    -0.5291
H     -1.8514    -6.4087    -1.9351
H      1.1902    -4.4563    -2.5422
H      1.1197    -6.1597    -1.9437
H      0.0057    -5.5877    -3.2497
H     -2.2830    -3.0905    -0.4295
H     -1.3616    -2.2921    -1.7589
H     -3.4787    -1.0938    -1.3115
H     -3.0468    -0.9505     0.4317
H     -2.1174     2.3230    -0.4952
H     -3.6744     1.4086    -0.5480
H     -2.5659     1.2401     0.8692
H     -1.3189    -0.3286    -2.7604
H     -1.1641     1.4237    -2.4019
H     -2.7946     0.7095    -2.7277
43
{"conf": 2, "E": 60.84, "rms": -1.0, "geom": "OH", "total_charge": 0, "CA_charge": 2, "smiles": "C[C:1]#[4N:2]->[Ru+2:3]1(<-[3H-:4])(<-[5H-:5])(<-[6C-:6]#[O+:7])<-[1N@H:8]([CH2:9][CH2:10][N:11]([CH3:12])[CH3:13])[CH2:14][CH2:15][2N:16]->1([CH3:17])[CH3:18]", "smiles3D": "C([C:1]#[4N:2]->[Ru+2:3]1(<-[3H-:4])(<-[5H-:5])(<-[6C-:6]#[O+:7])<-[1N@@:8]([C:9]([C:10]([N:11]([C:12]([H:27])([H:28])[H:29])[C:13]([H:30])([H:31])[H:32])([H:25])[H:26])([H:23])[H:24])([H:22])[C:14]([H:33])([H:34])[C:15]([H:35])([H:36])[2N:16]->1([C:17]([H:37])([H:38])[H:39])[C:18]([H:40])([H:41])[H:42])([H:19])([H:20])[H:21]", "smiles3Dx": "C([C:1]#[4N:2]->[Ru+2:3]1(<-[3H-:4])(<-[5H-:5])(<-[6C-:6]#[O+:7])<-[1N@@:8]([C:9]([C:10]([N:11]([C:12]([H:27])([H:28])[H:29])[C:13]([H:30])([H:31])[H:32])([H:25])[H:26])([H:23])[H:24])([H:22])[C:14]([H:33])([H:34])[C:15]([H:35])([H:36])[2N:16]->1([C:17]([H:37])([H:38])[H:39])[C:18]([H:40])([H:41])[H:42])([H:19])([H:20])[H:21]", "dummies": []}
C     -2.8350    -2.0092    -3.3593
C     -1.9711    -1.4096    -2.3433
N     -1.2496    -0.9000    -1.4894
Ru     0.0000     0.0000     0.0000
H      0.1841     1.3764    -0.9583
H     -0.1718    -1.4014     0.9281
C      1.7156    -0.8530    -0.9598
O      2.6811    -1.3328    -1.4999
N     -1.6618     0.8634     1.0418
C     -2.7457     1.2660     0.2248
C     -2.3875     2.1337    -1.0005
N     -3.6050     2.7552    -1.5694
C     -3.2446     3.9295    -2.3812
C     -4.3516     1.7967    -2.4052
C     -1.1196     1.8583     1.8683
C      0.1866     1.3613     2.5291
N      1.1568     0.9199     1.5730
C      1.8957     1.9910     1.0187
C      2.0311    -0.0406     2.1359
H     -2.3530    -1.9188    -4.3544
H     -3.8105    -1.4809    -3.3717
H     -2.9970    -3.0806    -3.1218
H     -1.9809     0.2010     1.5931
H     -3.4761     1.8297     0.8524
H     -3.2552     0.3461    -0.1404
H     -1.6788     2.9248    -0.6874
H     -1.8723     1.5299    -1.7739
H     -2.5516     3.6508    -3.2066
H     -2.7602     4.7006    -1.7442
H     -4.1562     4.3961    -2.8135
H     -4.7047     0.9394    -1.7968
H     -3.7273     1.4160    -3.2444
H     -5.2597     2.2801    -2.8258
H     -1.8493     2.1184     2.6716
H     -0.8982     2.7760     1.2944
H     -0.0892     0.5230     3.2108
H      0.6048     2.1839     3.1563
H      1.2185     2.7684     0.6100
H      2.5503     2.4613     1.7890
H      2.5333     1.6196     0.1870
H      1.4655    -0.9527     2.4208
H      2.5265     0.3694     3.0469
H      2.8187    -0.3354     1.4090
43
{"conf": 3, "E": 57.01, "rms": -1.0, "geom": "OH", "total_charge": 0, "CA_charge": 2, "smiles": "C[C:1]#[4N:2]->[Ru+2:3]1(<-[3H-:4])(<-[5H-:5])(<-[6C-:6]#[O+:7])<-[1N@H:8]([CH2:9][CH2:10][N:11]([CH3:12])[CH3:13])[CH2:14][CH2:15][2N:16]->1([CH3:17])[CH3:18]", "smiles3D": "C([C:1]#[4N:2]->[Ru+2:3]1(<-[3H-:4])(<-[5H-:5])(<-[6C-:6]#[O+:7])<-[1N@@:8]([C:9]([C:10]([N:11]([C:12]([H:27])([H:28])[H:29])[C:13]([H:30])([H:31])[H:32])([H:25])[H:26])([H:23])[H:24])([H:22])[C:14]([H:33])([H:34])[C:15]([H:35])([H:36])[2N:16]->1([C:17]([H:37])([H:38])[H:39])[C:18]([H:40])([H:41])[H:42])([H:19])([H:20])[H:21]", "smiles3Dx": "C([C:1]#[4N:2]->[Ru+2:3]1(<-[3H-:4])(<-[5H-:5])(<-[6C-:6]#[O+:7])<-[1N@@:8]([C:9]([C:10]([N:11]([C:12]([H:27])([H:28])[H:29])[C:13]([H:30])([H:31])[H:32])([H:25])[H:26])([H:23])[H:24])([H:22])[C:14]([H:33])([H:34])[C:15]([H:35])([H:36])[2N:16]->1([C:17]([H:37])([H:38])[H:39])[C:18]([H:40])([H:41])[H:42])([H:19])([H:20])[H:21]", "dummies": []}
C     -3.9523     1.4496    -2.3695
C     -2.7611     1.0031    -1.6482
N     -1.7571     0.6327    -1.0450
Ru     0.0000     0.0000     0.0000
H      0.5678    -0.7268    -1.4168
H     -0.6111     0.7225     1.4006
C     -0.9813    -1.8279     0.5367
O     -1.5334    -2.8565     0.8389
N      0.9999     1.8237    -0.4783
C      1.2468     1.8790    -1.8657
C      1.3486     3.3182    -2.4090
N      0.0707     4.0420    -2.2246
C     -0.8376     3.8162    -3.3629
C      0.3136     5.4853    -2.0709
C      2.1400     1.8666     0.3487
C      2.7701     0.4677     0.5592
N      1.8290    -0.5058     1.0157
C      1.6033    -0.4316     2.4096
C      2.2247    -1.8149     0.6498
H     -3.9922     2.5584    -2.3648
H     -4.8586     1.0439    -1.8748
H     -3.9074     1.0866    -3.4168
H      0.4342     2.5034    -0.2405
H      2.1874     1.3392    -2.1148
H      0.4162     1.3630    -2.3856
H      2.1766     3.8229    -1.8650
H      1.6469     3.2899    -3.4819
H     -1.8179     4.3028    -3.1694
H     -0.4127     4.2239    -4.3073
H     -1.0374     2.7336    -3.4984
H     -0.6483     6.0286    -1.9467
H      0.8544     5.8981    -2.9519
H      0.9127     5.6745    -1.1543
H      2.9125     2.5415    -0.0848
H      1.8529     2.2787     1.3418
H      3.6096     0.5633     1.2880
H      3.2073     0.1497    -0.4148
H      1.3292     0.5998     2.7110
H      2.5147    -0.7356     2.9753
H      0.7657    -1.1059     2.6927
H      3.2476    -2.0352     1.0355
H      2.2337    -1.9172    -0.4558
H      1.5225    -2.5722     1.0611
