37
{"conf": 0, "E": 71.96, "rms": -1.0, "geom": "OH", "total_charge": 0, "CA_charge": 2, "smiles": "C[1N:1]1([CH3:2])->[Ru+2:3]2(<-[3C-:4]#[O+:5])(<-[4H-:6])(<-[5H-:7])<-[2N@H:8]([CH2:9][CH2:10]1)[CH2:11][CH2:12][6N:13]->2([CH3:14])[CH3:15]", "smiles3D": "C([1N:1]1([C:2]([H:19])([H:20])[H:21])->[Ru+2:3]2(<-[3C-:4]#[O+:5])(<-[4H-:6])(<-[5H-:7])<-[2N@:8]([H:22])([C:9]([H:23])([H:24])[C:10]1([H:25])[H:26])[C:11]([H:27])([H:28])[C:12]([H:29])([H:30])[6N:13]->2([C:14]([H:31])([H:32])[H:33])[C:15]([H:34])([H:35])[H:36])([H:16])([H:17])[H:18]", "smiles3Dx": "C([1N:1]1([C:2]([H:19])([H:20])[H:21])->[Ru+2:3]2(<-[3C-:4]#[O+:5])(<-[4H-:6])(<-[5H-:7])<-[2N@:8]([H:22])([C:9]([H:23])([H:24])[C:10]1([H:25])[H:26])[C:11]([H:27])([H:28])[C:12]([H:29])([H:30])[6N:13]->2([C:14]([H:31])([H:32])[H:33])[C:15]([H:34])([H:35])[H:36])([H:16])([H:17])[H:18]", "dummies": []}
C      0.7772     1.9639    -1.9963
N      1.4056     1.3358    -0.8978
C      2.5373     0.6083    -1.3260
Ru     0.0000     0.0000     0.0000
C      1.4336    -0.4425     1.5547
O      2.2345    -0.6884     2.4221
H      0.4992    -1.3923    -0.8177
H     -1.0871     0.3181    -1.2539
N     -0.6217     1.7412     0.9538
C      0.4880     2.6141     1.0850
C      1.6999     2.2761     0.1443
C     -1.2446     1.2950     2.1235
C     -2.2374     0.1435     1.8005
N     -1.6028    -0.9439     1.1029
C     -2.4641    -1.5539     0.1621
C     -1.0865    -1.9238     1.9854
H      1.4692     2.6841    -2.4919
H      0.4616     1.2027    -2.7440
H     -0.1269     2.5153    -1.6590
H      2.9940     0.0590    -0.4777
H      2.2449    -0.1358    -2.0999
H      3.3024     1.2944    -1.7573
H     -1.2529     2.1381     0.4189
H      0.8580     2.6101     2.1365
H      0.1516     3.6542     0.8569
H      2.0787     3.2283    -0.2982
H      2.5157     1.8736     0.7875
H     -0.4886     0.9227     2.8463
H     -1.8035     2.1357     2.5960
H     -2.6912    -0.2137     2.7552
H     -3.0571     0.5792     1.1837
H     -1.9107    -2.3316    -0.4103
H     -3.3332    -2.0307     0.6722
H     -2.8510    -0.8040    -0.5597
H     -0.5571    -1.4513     2.8399
H     -0.3669    -2.5723     1.4394
H     -1.9024    -2.5625     2.3977
37
{"conf": 1, "E": 71.96, "rms": -1.0, "geom": "OH", "total_charge": 0, "CA_charge": 2, "smiles": "C[1N:1]1([CH3:2])->[Ru+2:3]2(<-[3C-:4]#[O+:5])(<-[4H-:6])(<-[5H-:7])<-[2N@H:8]([CH2:9][CH2:10]1)[CH2:11][CH2:12][6N:13]->2([CH3:14])[CH3:15]", "smiles3D": "C([1N:1]1([C:2]([H:19])([H:20])[H:21])->[Ru+2:3]2(<-[3C-:4]#[O+:5])(<-[4H-:6])(<-[5H-:7])<-[2N@:8]([H:22])([C:9]([H:23])([H:24])[C:10]1([H:25])[H:26])[C:11]([H:27])([H:28])[C:12]([H:29])([H:30])[6N:13]->2([C:14]([H:31])([H:32])[H:33])[C:15]([H:34])([H:35])[H:36])([H:16])([H:17])[H:18]", "smiles3Dx": "C([1N:1]1([C:2]([H:19])([H:20])[H:21])->[Ru+2:3]2(<-[3C-:4]#[O+:5])(<-[4H-:6])(<-[5H-:7])<-[2N@:8]([H:22])([C:9]([H:23])([H:24])[C:10]1([H:25])[H:26])[C:11]([H:27])([H:28])[C:12]([H:29])([H:30])[6N:13]->2([C:14]([H:31])([H:32])[H:33])[C:15]([H:34])([H:35])[H:36])([H:16])([H:17])[H:18]", "dummies": []}
C     -0.8736     2.7390     0.5483
N     -0.3444     1.6642     1.2954
C     -1.2563     1.2620     2.2968
Ru     0.0000     0.0000     0.0000
C      1.4672     1.1613    -1.0802
O      2.2861     1.8105    -1.6821
H     -1.1484     0.4165    -1.1679
H     -1.1891    -0.8735     0.8236
N      1.3709    -0.5099     1.4794
C      1.8449     0.6765     2.0947
C      0.9494     1.9434     1.8474
C      2.3012    -1.3249     0.8272
C      1.5720    -2.4077    -0.0165
N      0.6392    -1.8342    -0.9507
C      1.2323    -1.5600    -2.2071
C     -0.5074    -2.6420    -1.1291
H     -1.8541     2.4533     0.1065
H     -0.1908     3.0134    -0.2814
H     -1.0186     3.6326     1.1985
H     -1.4584     2.0960     3.0087
H     -0.8468     0.4002     2.8667
H     -2.2188     0.9481     1.8351
H      0.9270    -1.0142     2.1045
H      1.9072     0.5056     3.1965
H      2.8750     0.9093     1.7381
H      1.5100     2.6151     1.1578
H      0.8406     2.4918     2.8135
H      2.9532    -1.8271     1.5789
H      2.9415    -0.7180     0.1531
H      1.0461    -3.0824     0.6979
H      2.3379    -3.0182    -0.5509
H      2.2288    -1.0855    -2.0824
H      0.5802    -0.8660    -2.7814
H      1.3689    -2.4952    -2.7991
H     -0.2342    -3.6211    -1.5869
H     -1.0048    -2.8379    -0.1559
H     -1.2363    -2.1248    -1.7923
