43
{"conf": 0, "E": 109.74, "rms": -1.0, "geom": "OH", "total_charge": 0, "CA_charge": 2, "smiles": "C[C:1]#[6N:2]->[Ru+2:3]1(<-[3H-:4])(<-[4C-:5]#[O+:6])(<-[5H-:7])<-[1N:8]([CH3:9])([CH3:10])[CH2:11][CH2:12][NH:13][CH2:14][CH2:15][2N:16]->1([CH3:17])[CH3:18]", "smiles3D": "C([C:1]#[6N:2]->[Ru+2:3]1(<-[3H-:4])(<-[4C-:5]#[O+:6])(<-[5H-:7])<-[1N:8]([C:9]([H:22])([H:23])[H:24])([C:10]([H:25])([H:26])[H:27])[C:11]([H:28])([H:29])[C:12]([H:30])([H:31])[N:13]([H:32])[C:14]([H:33])([H:34])[C:15]([H:35])([H:36])[2N:16]->1([C:17]([H:37])([H:38])[H:39])[C:18]([H:40])([H:41])[H:42])([H:19])([H:20])[H:21]", "smiles3Dx": "C([C:1]#[6N:2]->[Ru+2:3]1(<-[3H-:4])(<-[4C-:5]#[O+:6])(<-[5H-:7])<-[1N:8]([C:9]([H:22])([H:23])[H:24])([C:10]([H:25])([H:26])[H:27])[C:11]([H:28])([H:29])[C:12]([H:30])([H:31])[N:13]([H:32])[C:14]([H:33])([H:34])[C:15]([H:35])([H:36])[2N:16]->1([C:17]([H:37])([H:38])[H:39])[C:18]([H:40])([H:41])[H:42])([H:19])([H:20])[H:21]", "dummies": []}
C     -1.6767    -3.9386    -2.2597
C     -1.1760    -2.7472    -1.5753
N     -0.7572    -1.7451    -0.9998
Ru     0.0000     0.0000     0.0000
H      0.1747    -0.9566     1.3745
C      1.8168    -0.8315    -0.7868
O      2.8350    -1.3011    -1.2310
H     -0.1630     0.8706    -1.4404
N      1.2401     1.6552     0.9075
C      2.4742     1.0765     1.3492
C      1.5274     2.5480    -0.1626
C      0.6438     2.4024     1.9875
C      0.4562     1.6527     3.3187
N     -0.3897     0.4810     3.1340
C     -1.8087     0.8382     3.0796
C     -2.4789     0.1806     1.8672
N     -2.0983     0.6133     0.5414
C     -2.2828     2.0139     0.2793
C     -2.9432    -0.0993    -0.3710
H     -1.3074    -3.9467    -3.3058
H     -2.7860    -3.9258    -2.2590
H     -1.3168    -4.8462    -1.7330
H      3.0210     1.7545     2.0468
H      3.1586     0.8550     0.5008
H      2.2603     0.1228     1.8755
H      0.6315     3.1350    -0.4464
H      2.3386     3.2636     0.1147
H      1.8567     1.9715    -1.0536
H     -0.3276     2.7912     1.6742
H      1.2854     3.2907     2.2080
H      0.0260     2.3417     4.0812
H      1.4385     1.3417     3.7329
H     -0.2354    -0.1615     3.9471
H     -1.9972     1.9291     3.1281
H     -2.3163     0.4408     3.9886
H     -2.2781    -0.9138     1.9428
H     -3.5798     0.3297     1.9883
H     -2.4339     2.6025     1.1985
H     -1.3850     2.3854    -0.2314
H     -3.1524     2.2379    -0.3849
H     -4.0036     0.2461    -0.3035
H     -2.9380    -1.1899    -0.1614
H     -2.5851     0.0613    -1.4124
43
{"conf": 1, "E": 121.18, "rms": -1.0, "geom": "OH", "total_charge": 0, "CA_charge": 2, "smiles": "C[C:1]#[6N:2]->[Ru+2:3]1(<-[3H-:4])(<-[4C-:5]#[O+:6])(<-[5H-:7])<-[1N:8]([CH3:9])([CH3:10])[CH2:11][CH2:12][NH:13][CH2:14][CH2:15][2N:16]->1([CH3:17])[CH3:18]", "smiles3D": "C([C:1]#[6N:2]->[Ru+2:3]1(<-[3H-:4])(<-[4C-:5]#[O+:6])(<-[5H-:7])<-[1N:8]([C:9]([H:22])([H:23])[H:24])([C:10]([H:25])([H:26])[H:27])[C:11]([H:28])([H:29])[C:12]([H:30])([H:31])[N:13]([H:32])[C:14]([H:33])([H:34])[C:15]([H:35])([H:36])[2N:16]->1([C:17]([H:37])([H:38])[H:39])[C:18]([H:40])([H:41])[H:42])([H:19])([H:20])[H:21]", "smiles3Dx": "C([C:1]#[6N:2]->[Ru+2:3]1(<-[3H-:4])(<-[4C-:5]#[O+:6])(<-[5H-:7])<-[1N:8]([C:9]([H:22])([H:23])[H:24])([C:10]([H:25])([H:26])[H:27])[C:11]([H:28])([H:29])[C:12]([H:30])([H:31])[N:13]([H:32])[C:14]([H:33])([H:34])[C:15]([H:35])([H:36])[2N:16]->1([C:17]([H:37])([H:38])[H:39])[C:18]([H:40])([H:41])[H:42])([H:19])([H:20])[H:21]", "dummies": []}
C      3.0104    -2.0554    -3.1833
C      2.1050    -1.4349    -2.2170
N      1.3454    -0.9138    -1.4032
Ru     0.0000     0.0000     0.0000
H      0.6458     1.5046    -0.4183
C     -1.1921    -0.0173    -1.7856
O     -1.8578    -0.0306    -2.7912
H     -0.6464    -1.5165     0.3776
N     -1.6723     1.0566     1.1131
C     -2.6593     0.1051     1.4947
C     -2.2800     1.9319     0.1398
C     -1.2199     1.9179     2.2006
C     -1.0271     1.3389     3.6312
N      0.3928     1.3721     4.0086
C      0.9863     0.0359     4.0871
C      0.8607    -0.7609     2.7702
N      1.5448    -0.2841     1.5928
C      2.3054     0.9116     1.7100
C      2.4460    -1.3055     1.1539
H      2.4872    -2.8866    -3.6992
H      3.3296    -1.2990    -3.9294
H      3.9010    -2.4511    -2.6532
H     -2.2293    -0.7016     2.1052
H     -3.4709     0.5980     2.0791
H     -3.1110    -0.3762     0.5979
H     -3.0467     2.6012     0.5968
H     -2.7964     1.3717    -0.6612
H     -1.4940     2.5628    -0.3292
H     -0.2732     2.3707     1.8676
H     -1.9323     2.7677     2.3335
H     -1.4994     0.3565     3.8186
H     -1.5834     2.0051     4.3312
H      0.4840     1.8101     4.9558
H      2.0568     0.1211     4.3689
H      0.4913    -0.5406     4.9016
H      1.1466    -1.8134     3.0184
H     -0.1882    -0.8027     2.4929
H      2.7291     1.1892     0.7187
H      1.6952     1.7512     2.0462
H      3.1472     0.7788     2.4282
H      1.8658    -2.1937     0.8176
H      3.1254    -1.6176     1.9835
H      3.0829    -0.9638     0.3087
43
{"conf": 2, "E": 119.4, "rms": -1.0, "geom": "OH", "total_charge": 0, "CA_charge": 2, "smiles": "C[C:1]#[6N:2]->[Ru+2:3]1(<-[3H-:4])(<-[4C-:5]#[O+:6])(<-[5H-:7])<-[1N:8]([CH3:9])([CH3:10])[CH2:11][CH2:12][NH:13][CH2:14][CH2:15][2N:16]->1([CH3:17])[CH3:18]", "smiles3D": "C([C:1]#[6N:2]->[Ru+2:3]1(<-[3H-:4])(<-[4C-:5]#[O+:6])(<-[5H-:7])<-[1N:8]([C:9]([H:22])([H:23])[H:24])([C:10]([H:25])([H:26])[H:27])[C:11]([H:28])([H:29])[C:12]([H:30])([H:31])[N:13]([H:32])[C:14]([H:33])([H:34])[C:15]([H:35])([H:36])[2N:16]->1([C:17]([H:37])([H:38])[H:39])[C:18]([H:40])([H:41])[H:42])([H:19])([H:20])[H:21]", "smiles3Dx": "C([C:1]#[6N:2]->[Ru+2:3]1(<-[3H-:4])(<-[4C-:5]#[O+:6])(<-[5H-:7])<-[1N:8]([C:9]([H:22])([H:23])[H:24])([C:10]([H:25])([H:26])[H:27])[C:11]([H:28])([H:29])[C:12]([H:30])([H:31])[N:13]([H:32])[C:14]([H:33])([H:34])[C:15]([H:35])([H:36])[2N:16]->1([C:17]([H:37])([H:38])[H:39])[C:18]([H:40])([H:41])[H:42])([H:19])([H:20])[H:21]", "dummies": []}
C      0.0725     1.5770     4.5735
C      0.0514     1.1041     3.1898
N      0.0342     0.7089     2.0263
Ru     0.0000     0.0000     0.0000
H      1.5364    -0.6524     0.2678
C     -0.8995    -1.6668     1.0109
O     -1.4053    -2.6001     1.5834
H     -1.5454     0.6221    -0.1837
N     -0.0627    -1.1339    -1.9556
C      1.0622    -0.7884    -2.7755
C      0.1226    -2.5183    -1.6021
C     -1.3316    -1.0392    -2.6537
C     -1.9769     0.3425    -2.8822
N     -1.0332     1.3490    -3.3790
C     -0.7725     2.4310    -2.4199
C      0.6932     2.3915    -1.9462
N      0.8867     1.9792    -0.5837
C      0.3113     2.9596     0.3010
C      2.2791     1.8946    -0.3099
H      0.3012     2.6625     4.5890
H      0.8513     1.0267     5.1403
H     -0.9186     1.4008     5.0395
H      0.7989    -0.0714    -3.5660
H      1.5243    -1.6612    -3.2963
H      1.8339    -0.3462    -2.1301
H      0.2545    -3.1610    -2.5061
H     -0.7452    -2.9239    -1.0486
H      1.0238    -2.6223    -0.9581
H     -1.2077    -1.5177    -3.6558
H     -2.0949    -1.6363    -2.1017
H     -2.7651     0.1871    -3.6546
H     -2.5706     0.6697    -2.0091
H     -1.4181     1.7665    -4.2598
H     -0.9342     3.4077    -2.9317
H     -1.4829     2.4493    -1.5749
H      1.2725     1.7542    -2.6261
H      1.1131     3.4203    -2.0705
H      0.8226     2.9781     1.2901
H      0.3635     3.9917    -0.1172
H     -0.7532     2.7112     0.4797
H      2.4360     1.4801     0.7100
H      2.7932     1.2293    -1.0297
H      2.7581     2.9016    -0.3619
43
{"conf": 3, "E": 119.25, "rms": -1.0, "geom": "OH", "total_charge": 0, "CA_charge": 2, "smiles": "C[C:1]#[6N:2]->[Ru+2:3]1(<-[3H-:4])(<-[4C-:5]#[O+:6])(<-[5H-:7])<-[1N:8]([CH3:9])([CH3:10])[CH2:11][CH2:12][NH:13][CH2:14][CH2:15][2N:16]->1([CH3:17])[CH3:18]", "smiles3D": "C([C:1]#[6N:2]->[Ru+2:3]1(<-[3H-:4])(<-[4C-:5]#[O+:6])(<-[5H-:7])<-[1N:8]([C:9]([H:22])([H:23])[H:24])([C:10]([H:25])([H:26])[H:27])[C:11]([H:28])([H:29])[C:12]([H:30])([H:31])[N:13]([H:32])[C:14]([H:33])([H:34])[C:15]([H:35])([H:36])[2N:16]->1([C:17]([H:37])([H:38])[H:39])[C:18]([H:40])([H:41])[H:42])([H:19])([H:20])[H:21]", "smiles3Dx": "C([C:1]#[6N:2]->[Ru+2:3]1(<-[3H-:4])(<-[4C-:5]#[O+:6])(<-[5H-:7])<-[1N:8]([C:9]([H:22])([H:23])[H:24])([C:10]([H:25])([H:26])[H:27])[C:11]([H:28])([H:29])[C:12]([H:30])([H:31])[N:13]([H:32])[C:14]([H:33])([H:34])[C:15]([H:35])([H:36])[2N:16]->1([C:17]([H:37])([H:38])[H:39])[C:18]([H:40])([H:41])[H:42])([H:19])([H:20])[H:21]", "dummies": []}
C     -4.6294    -1.3561     0.3682
C     -3.2309    -0.9415     0.2633
N     -2.0558    -0.5919     0.1767
Ru     0.0000     0.0000     0.0000
H      0.4075    -1.4600     0.7167
C     -0.2841    -1.0089    -1.8756
O     -0.4468    -1.5752    -2.9278
H     -0.4685     1.4295    -0.7714
N      2.1458     0.3288    -0.5952
C      2.1490     1.4374    -1.4854
C      2.5664    -0.8397    -1.3272
C      3.0726     0.5793     0.4740
C      3.1138    -0.4974     1.5752
N      2.5279     0.0168     2.8203
C      1.2856    -0.6615     3.2029
C      0.0474     0.2532     3.1347
N     -0.1620     1.0920     1.9686
C     -1.5239     1.5533     2.0197
C      0.6514     2.2728     1.9650
H     -4.6778    -2.4460     0.5698
H     -5.1166    -0.8043     1.1982
H     -5.1539    -1.1320    -0.5833
H      1.9287     2.3827    -0.9529
H      1.3688     1.2959    -2.2648
H      3.1395     1.5428    -1.9894
H      2.2231    -0.8125    -2.3866
H      3.6753    -0.9546    -1.3424
H      2.1305    -1.7433    -0.8576
H      2.8727     1.5548     0.9341
H      4.1017     0.6572     0.0438
H      4.1839    -0.7477     1.7613
H      2.6682    -1.4512     1.2423
H      3.2267    -0.0984     3.5929
H      1.1150    -1.6227     2.6844
H      1.3715    -0.9814     4.2671
H      0.0744     0.9166     4.0334
H     -0.8297    -0.4245     3.2587
H     -2.2377     0.7161     2.1254
H     -1.6968     2.2347     2.8877
H     -1.7691     2.1013     1.0833
H      0.8719     2.5360     0.9206
H      1.5968     2.1299     2.5082
H      0.1591     3.1578     2.4351
43
{"conf": 4, "E": 111.71, "rms": -1.0, "geom": "OH", "total_charge": 0, "CA_charge": 2, "smiles": "C[C:1]#[6N:2]->[Ru+2:3]1(<-[3H-:4])(<-[4C-:5]#[O+:6])(<-[5H-:7])<-[1N:8]([CH3:9])([CH3:10])[CH2:11][CH2:12][NH:13][CH2:14][CH2:15][2N:16]->1([CH3:17])[CH3:18]", "smiles3D": "C([C:1]#[6N:2]->[Ru+2:3]1(<-[3H-:4])(<-[4C-:5]#[O+:6])(<-[5H-:7])<-[1N:8]([C:9]([H:22])([H:23])[H:24])([C:10]([H:25])([H:26])[H:27])[C:11]([H:28])([H:29])[C:12]([H:30])([H:31])[N:13]([H:32])[C:14]([H:33])([H:34])[C:15]([H:35])([H:36])[2N:16]->1([C:17]([H:37])([H:38])[H:39])[C:18]([H:40])([H:41])[H:42])([H:19])([H:20])[H:21]", "smiles3Dx": "C([C:1]#[6N:2]->[Ru+2:3]1(<-[3H-:4])(<-[4C-:5]#[O+:6])(<-[5H-:7])<-[1N:8]([C:9]([H:22])([H:23])[H:24])([C:10]([H:25])([H:26])[H:27])[C:11]([H:28])([H:29])[C:12]([H:30])([H:31])[N:13]([H:32])[C:14]([H:33])([H:34])[C:15]([H:35])([H:36])[2N:16]->1([C:17]([H:37])([H:38])[H:39])[C:18]([H:40])([H:41])[H:42])([H:19])([H:20])[H:21]", "dummies": []}
C      1.9359    -1.8155    -4.0460
C      1.3463    -1.2710    -2.8235
N      0.8490    -0.8147    -1.7963
Ru     0.0000     0.0000     0.0000
H      1.0205    -1.0245     0.8743
C      1.6565     1.3315    -0.3256
O      2.5866     2.0762    -0.5121
H     -0.9058     1.0577    -0.9412
N     -0.4886     1.0377     1.9459
C      0.6994     1.7431     2.3393
C     -0.7159     0.0876     2.9824
C     -1.5315     2.0241     1.8217
C     -2.9349     1.5337     1.4627
N     -2.9507     1.0934     0.0669
C     -3.6772    -0.1510    -0.1329
C     -2.9106    -1.3542     0.4355
N     -1.5905    -1.6101    -0.1090
C     -1.0301    -2.7144     0.5803
C     -1.7311    -1.9466    -1.4941
H      2.8918    -2.3225    -3.8013
H      2.1270    -0.9911    -4.7633
H      1.2351    -2.5461    -4.4999
H      0.6213     2.1479     3.3778
H      0.8976     2.6041     1.6650
H      1.5752     1.0574     2.2976
H     -1.6363    -0.4568     2.8416
H      0.1151    -0.6513     3.0064
H     -0.7791     0.5815     3.9814
H     -1.2301     2.7541     1.0341
H     -1.6168     2.5848     2.7848
H     -3.3040     0.7799     2.1843
H     -3.6335     2.3938     1.5797
H     -3.4079     1.8345    -0.5158
H     -4.6812    -0.0906     0.3458
H     -3.8568    -0.3015    -1.2185
H     -2.8702    -1.2536     1.5165
H     -3.5499    -2.2522     0.2511
H     -1.6649    -3.6260     0.4713
H     -0.0171    -2.9404     0.1808
H     -0.9271    -2.4802     1.6608
H     -2.6556    -2.5358    -1.6987
H     -0.8718    -2.5481    -1.8615
H     -1.7753    -1.0086    -2.0867
