37
{"conf": 0, "E": 84.08, "rms": -1.0, "geom": "OH", "total_charge": 0, "CA_charge": 2, "smiles": "C[1N:1]1([CH3:2])->[Ru+2:3]2(<-[4C-:4]#[O+:5])(<-[5H-:6])(<-[6H-:7])<-[2N@H:8]([CH2:9][CH2:10]1)[CH2:11][CH2:12][3N:13]->2([CH3:14])[CH3:15]", "smiles3D": "C([1N:1]1([C:2]([H:19])([H:20])[H:21])->[Ru+2:3]2(<-[4C-:4]#[O+:5])(<-[5H-:6])(<-[6H-:7])<-[2N@:8]([H:22])([C:9]([H:23])([H:24])[C:10]1([H:25])[H:26])[C:11]([H:27])([H:28])[C:12]([H:29])([H:30])[3N:13]->2([C:14]([H:31])([H:32])[H:33])[C:15]([H:34])([H:35])[H:36])([H:16])([H:17])[H:18]", "smiles3Dx": "C([1N:1]1([C:2]([H:19])([H:20])[H:21])->[Ru+2:3]2(<-[4C-:4]#[O+:5])(<-[5H-:6])(<-[6H-:7])<-[2N@:8]([H:22])([C:9]([H:23])([H:24])[C:10]1([H:25])[H:26])[C:11]([H:27])([H:28])[C:12]([H:29])([H:30])[3N:13]->2([C:14]([H:31])([H:32])[H:33])[C:15]([H:34])([H:35])[H:36])([H:16])([H:17])[H:18]", "dummies": []}
C      1.2608     0.6059     2.5697
N      1.7672     0.2126     1.2953
C      2.6901     1.2144     0.8561
Ru     0.0000     0.0000     0.0000
C     -0.3768     2.1097    -0.1283
O     -0.5881     3.2947    -0.2002
H     -0.9212    -0.0753     1.4124
H     -1.4735    -0.3198    -0.7616
N      0.4515    -2.0614     0.1052
C      1.2728    -2.2237     1.2345
C      2.3392    -1.1006     1.3686
C      1.0310    -2.4718    -1.1211
C      0.6418    -1.5407    -2.2912
N      0.8596    -0.1602    -1.9998
C      2.2200     0.1938    -2.1073
C      0.1023     0.6580    -2.8823
H      2.0838     0.7458     3.3098
H      0.7048     1.5643     2.4706
H      0.5663    -0.1551     2.9778
H      2.1364     2.0341     0.3634
H      3.2652     1.6504     1.7066
H      3.4347     0.8193     0.1441
H     -0.3363    -2.5140     0.2348
H      1.7919    -3.2099     1.1907
H      0.6346    -2.2184     2.1454
H      3.0852    -1.2501     0.5648
H      2.8744    -1.2384     2.3383
H      0.6779    -3.5025    -1.3635
H      2.1391    -2.5095    -1.0559
H     -0.4391    -1.7142    -2.5013
H      1.2171    -1.8458    -3.1977
H      2.8486    -0.4570    -1.4816
H      2.3662     1.2482    -1.7968
H      2.5689     0.0917    -3.1622
H      0.3106     1.7350    -2.6965
H      0.3526     0.4288    -3.9452
H     -0.9841     0.4898    -2.7354
37
{"conf": 1, "E": 82.77, "rms": -1.0, "geom": "OH", "total_charge": 0, "CA_charge": 2, "smiles": "C[1N:1]1([CH3:2])->[Ru+2:3]2(<-[4C-:4]#[O+:5])(<-[5H-:6])(<-[6H-:7])<-[2N@H:8]([CH2:9][CH2:10]1)[CH2:11][CH2:12][3N:13]->2([CH3:14])[CH3:15]", "smiles3D": "C([1N:1]1([C:2]([H:19])([H:20])[H:21])->[Ru+2:3]2(<-[4C-:4]#[O+:5])(<-[5H-:6])(<-[6H-:7])<-[2N@:8]([H:22])([C:9]([H:23])([H:24])[C:10]1([H:25])[H:26])[C:11]([H:27])([H:28])[C:12]([H:29])([H:30])[3N:13]->2([C:14]([H:31])([H:32])[H:33])[C:15]([H:34])([H:35])[H:36])([H:16])([H:17])[H:18]", "smiles3Dx": "C([1N:1]1([C:2]([H:19])([H:20])[H:21])->[Ru+2:3]2(<-[4C-:4]#[O+:5])(<-[5H-:6])(<-[6H-:7])<-[2N@:8]([H:22])([C:9]([H:23])([H:24])[C:10]1([H:25])[H:26])[C:11]([H:27])([H:28])[C:12]([H:29])([H:30])[3N:13]->2([C:14]([H:31])([H:32])[H:33])[C:15]([H:34])([H:35])[H:36])([H:16])([H:17])[H:18]", "dummies": []}
C      2.1036     1.1142     1.9164
N      0.7614     1.3669     1.5226
C      0.7161     2.6757     0.9608
Ru     0.0000     0.0000     0.0000
C      1.9114    -0.3573    -0.9076
O      2.9854    -0.5587    -1.4175
H     -0.2170     1.3555    -0.9841
H     -0.7566    -0.8145    -1.2706
N     -1.8397     0.3083     0.9909
C     -1.6394     1.1527     2.1216
C     -0.1599     1.2468     2.5941
C     -2.3241    -0.9789     1.2661
C     -1.2432    -1.8961     1.8809
N     -0.0432    -1.9163     1.0893
C     -0.1219    -2.9275     0.0878
C      1.1183    -2.1508     1.8704
H      2.2148     0.1357     2.3887
H      2.7799     1.1507     1.0365
H      2.4429     1.8823     2.6509
H      1.4010     2.7381     0.0849
H     -0.3067     2.9200     0.6090
H      1.0230     3.4469     1.7065
H     -2.4117     0.7194     0.4029
H     -2.2545     0.8073     2.9843
H     -1.9872     2.1806     1.8673
H     -0.0650     2.1198     3.2831
H      0.0697     0.3418     3.1834
H     -3.1958    -0.9281     1.9587
H     -2.6737    -1.4366     0.3141
H     -1.6690    -2.9237     1.9772
H     -1.0437    -1.5335     2.9098
H     -0.1079    -3.9489     0.5363
H      0.7393    -2.8343    -0.6085
H     -1.0563    -2.8292    -0.5023
H      1.0997    -1.5751     2.8118
H      1.2087    -3.2270     2.1489
H      2.0203    -1.8630     1.2933
