43
{"conf": 0, "E": 109.07, "rms": -1.0, "geom": "OH", "total_charge": 0, "CA_charge": 2, "smiles": "C[C:1]#[5N:2]->[Ru+2:3]1(<-[3H-:4])(<-[4H-:5])(<-[6C-:6]#[O+:7])<-[1N:8]([CH3:9])([CH3:10])[CH2:11][CH2:12][NH:13][CH2:14][CH2:15][2N:16]->1([CH3:17])[CH3:18]", "smiles3D": "C([C:1]#[5N:2]->[Ru+2:3]1(<-[3H-:4])(<-[4H-:5])(<-[6C-:6]#[O+:7])<-[1N:8]([C:9]([H:22])([H:23])[H:24])([C:10]([H:25])([H:26])[H:27])[C:11]([H:28])([H:29])[C:12]([H:30])([H:31])[N:13]([H:32])[C:14]([H:33])([H:34])[C:15]([H:35])([H:36])[2N:16]->1([C:17]([H:37])([H:38])[H:39])[C:18]([H:40])([H:41])[H:42])([H:19])([H:20])[H:21]", "smiles3Dx": "C([C:1]#[5N:2]->[Ru+2:3]1(<-[3H-:4])(<-[4H-:5])(<-[6C-:6]#[O+:7])<-[1N:8]([C:9]([H:22])([H:23])[H:24])([C:10]([H:25])([H:26])[H:27])[C:11]([H:28])([H:29])[C:12]([H:30])([H:31])[N:13]([H:32])[C:14]([H:33])([H:34])[C:15]([H:35])([H:36])[2N:16]->1([C:17]([H:37])([H:38])[H:39])[C:18]([H:40])([H:41])[H:42])([H:19])([H:20])[H:21]", "dummies": []}
C      3.0344    -2.8269    -2.4968
C      2.1157    -1.9733    -1.7449
N      1.3441    -1.2573    -1.1111
Ru     0.0000     0.0000     0.0000
H     -1.0403     1.0959     0.7393
H     -1.0988    -0.1375    -1.2744
C      0.6944     1.6539    -1.1825
O      1.0819     2.5815    -1.8487
N     -1.1403    -1.7364     0.8632
C     -0.6881    -2.9144     0.2045
C     -2.4928    -1.5124     0.4646
C     -1.0689    -1.9448     2.2914
C     -1.7496    -0.8924     3.1845
N     -1.1782     0.4285     2.9581
C      0.1220     0.5814     3.6147
C      1.1543     1.1595     2.6357
N      1.6139     0.3374     1.5369
C      2.1838    -0.9244     1.9223
C      2.6445     1.0895     0.8797
H      4.0446    -2.7732    -2.0414
H      3.0838    -2.4799    -3.5494
H      2.6711    -3.8747    -2.4689
H     -0.6636    -2.7500    -0.8944
H      0.3325    -3.1894     0.5363
H     -1.3649    -3.7779     0.4124
H     -3.1905    -2.2197     0.9729
H     -2.7864    -0.4741     0.7228
H     -2.6202    -1.6343    -0.6352
H     -0.0216    -2.0281     2.6012
H     -1.5506    -2.9233     2.5346
H     -2.8428    -0.8674     2.9898
H     -1.6508    -1.1888     4.2540
H     -1.8404     1.1391     3.3508
H      0.0195     1.3128     4.4493
H      0.4784    -0.3402     4.1156
H      0.7087     2.0871     2.2065
H      2.0389     1.4641     3.2472
H      3.2758    -1.0107     1.7027
H      1.6839    -1.7122     1.3508
H      2.0594    -1.1380     2.9983
H      3.5588     1.1673     1.5172
H      2.3105     2.1244     0.6498
H      2.9237     0.5919    -0.0740
43
{"conf": 1, "E": 121.44, "rms": -1.0, "geom": "OH", "total_charge": 0, "CA_charge": 2, "smiles": "C[C:1]#[5N:2]->[Ru+2:3]1(<-[3H-:4])(<-[4H-:5])(<-[6C-:6]#[O+:7])<-[1N:8]([CH3:9])([CH3:10])[CH2:11][CH2:12][NH:13][CH2:14][CH2:15][2N:16]->1([CH3:17])[CH3:18]", "smiles3D": "C([C:1]#[5N:2]->[Ru+2:3]1(<-[3H-:4])(<-[4H-:5])(<-[6C-:6]#[O+:7])<-[1N:8]([C:9]([H:22])([H:23])[H:24])([C:10]([H:25])([H:26])[H:27])[C:11]([H:28])([H:29])[C:12]([H:30])([H:31])[N:13]([H:32])[C:14]([H:33])([H:34])[C:15]([H:35])([H:36])[2N:16]->1([C:17]([H:37])([H:38])[H:39])[C:18]([H:40])([H:41])[H:42])([H:19])([H:20])[H:21]", "smiles3Dx": "C([C:1]#[5N:2]->[Ru+2:3]1(<-[3H-:4])(<-[4H-:5])(<-[6C-:6]#[O+:7])<-[1N:8]([C:9]([H:22])([H:23])[H:24])([C:10]([H:25])([H:26])[H:27])[C:11]([H:28])([H:29])[C:12]([H:30])([H:31])[N:13]([H:32])[C:14]([H:33])([H:34])[C:15]([H:35])([H:36])[2N:16]->1([C:17]([H:37])([H:38])[H:39])[C:18]([H:40])([H:41])[H:42])([H:19])([H:20])[H:21]", "dummies": []}
C     -0.2092     3.8493    -2.9191
C     -0.1451     2.6801    -2.0435
N     -0.0894     1.6948    -1.3109
Ru     0.0000     0.0000     0.0000
H      0.0424    -1.2005     1.1866
H     -1.4303     0.5747     0.6879
C      0.7968     1.3533     1.4699
O      1.2404     2.1129     2.2950
N     -1.3270    -1.3429    -1.2371
C     -1.0048    -2.7157    -1.0381
C     -2.6094    -1.1482    -0.6325
C     -1.4467    -0.9526    -2.6297
C     -0.4955    -1.6020    -3.6561
N      0.8872    -1.6248    -3.1969
C      1.5036    -0.3051    -3.2082
C      2.4547    -0.1049    -2.0196
N      2.0742    -0.6016    -0.7034
C      2.2534    -2.0253    -0.5610
C      2.9860     0.0034     0.2225
H      0.3750     3.6515    -3.8412
H     -1.2663     4.0525    -3.1872
H      0.2155     4.7289    -2.3932
H     -1.7648    -3.3737    -1.5221
H     -0.0301    -2.9687    -1.4612
H     -0.9732    -2.9530     0.0484
H     -2.5489    -1.3321     0.4641
H     -3.3799    -1.8354    -1.0596
H     -2.9526    -0.1001    -0.7907
H     -2.4786    -1.1716    -3.0008
H     -1.3227     0.1398    -2.6855
H     -0.5743    -1.0703    -4.6317
H     -0.8315    -2.6471    -3.8358
H      1.4304    -2.2508    -3.8380
H      2.0932    -0.1811    -4.1455
H      0.7675     0.5103    -3.2547
H      2.6356     0.9951    -1.9596
H      3.4283    -0.5789    -2.2957
H      2.1275    -2.5645    -1.5091
H      1.5123    -2.4115     0.1596
H      3.2671    -2.3026    -0.1811
H      2.7644    -0.3424     1.2580
H      2.9009     1.1106     0.1955
H      4.0463    -0.2583    -0.0156
43
{"conf": 2, "E": 125.72, "rms": -1.0, "geom": "OH", "total_charge": 0, "CA_charge": 2, "smiles": "C[C:1]#[5N:2]->[Ru+2:3]1(<-[3H-:4])(<-[4H-:5])(<-[6C-:6]#[O+:7])<-[1N:8]([CH3:9])([CH3:10])[CH2:11][CH2:12][NH:13][CH2:14][CH2:15][2N:16]->1([CH3:17])[CH3:18]", "smiles3D": "C([C:1]#[5N:2]->[Ru+2:3]1(<-[3H-:4])(<-[4H-:5])(<-[6C-:6]#[O+:7])<-[1N:8]([C:9]([H:22])([H:23])[H:24])([C:10]([H:25])([H:26])[H:27])[C:11]([H:28])([H:29])[C:12]([H:30])([H:31])[N:13]([H:32])[C:14]([H:33])([H:34])[C:15]([H:35])([H:36])[2N:16]->1([C:17]([H:37])([H:38])[H:39])[C:18]([H:40])([H:41])[H:42])([H:19])([H:20])[H:21]", "smiles3Dx": "C([C:1]#[5N:2]->[Ru+2:3]1(<-[3H-:4])(<-[4H-:5])(<-[6C-:6]#[O+:7])<-[1N:8]([C:9]([H:22])([H:23])[H:24])([C:10]([H:25])([H:26])[H:27])[C:11]([H:28])([H:29])[C:12]([H:30])([H:31])[N:13]([H:32])[C:14]([H:33])([H:34])[C:15]([H:35])([H:36])[2N:16]->1([C:17]([H:37])([H:38])[H:39])[C:18]([H:40])([H:41])[H:42])([H:19])([H:20])[H:21]", "dummies": []}
C     -1.5889     4.2725     1.6311
C     -1.1103     2.9817     1.1385
N     -0.7095     1.8950     0.7274
Ru     0.0000     0.0000     0.0000
H      0.6561    -1.3776    -0.7271
H      1.4743     0.7665    -0.2983
C     -0.4293     0.7603    -1.9660
O     -0.6673     1.1882    -3.0681
N      0.9511    -0.5329     1.9439
C      1.5569     0.6465     2.4754
C      1.9872    -1.4408     1.5943
C      0.1114    -1.1435     2.9198
C     -1.1354    -0.3346     3.2941
N     -2.2918    -1.2282     3.2774
C     -3.3790    -0.8136     2.3844
C     -2.9974    -0.3834     0.9340
N     -1.9937    -1.1051     0.1378
C     -2.4627    -1.1211    -1.2149
C     -1.7471    -2.4806     0.4973
H     -2.6075     4.1513     2.0536
H     -1.6191     4.9997     0.7939
H     -0.9030     4.6439     2.4200
H      0.7912     1.4011     2.7384
H      2.2426     1.1039     1.7312
H      2.1460     0.4155     3.3944
H      2.6177    -1.7000     2.4782
H      1.5586    -2.3793     1.1818
H      2.6397    -0.9923     0.8130
H     -0.2016    -2.1414     2.5623
H      0.6978    -1.3139     3.8562
H     -1.0002     0.0918     4.3143
H     -1.2623     0.5279     2.6354
H     -2.6775    -1.3157     4.2473
H     -4.0982    -1.6584     2.3117
H     -3.9364     0.0264     2.8571
H     -2.6777     0.6620     0.9769
H     -3.9731    -0.3705     0.3865
H     -3.3805    -1.7495    -1.3223
H     -1.6751    -1.5311    -1.8862
H     -2.7193    -0.0929    -1.5518
H     -0.6633    -2.6692     0.4246
H     -2.2567    -3.2146    -0.1731
H     -2.0641    -2.7281     1.5141
43
{"conf": 4, "E": 114.44, "rms": -1.0, "geom": "OH", "total_charge": 0, "CA_charge": 2, "smiles": "C[C:1]#[5N:2]->[Ru+2:3]1(<-[3H-:4])(<-[4H-:5])(<-[6C-:6]#[O+:7])<-[1N:8]([CH3:9])([CH3:10])[CH2:11][CH2:12][NH:13][CH2:14][CH2:15][2N:16]->1([CH3:17])[CH3:18]", "smiles3D": "C([C:1]#[5N:2]->[Ru+2:3]1(<-[3H-:4])(<-[4H-:5])(<-[6C-:6]#[O+:7])<-[1N:8]([C:9]([H:22])([H:23])[H:24])([C:10]([H:25])([H:26])[H:27])[C:11]([H:28])([H:29])[C:12]([H:30])([H:31])[N:13]([H:32])[C:14]([H:33])([H:34])[C:15]([H:35])([H:36])[2N:16]->1([C:17]([H:37])([H:38])[H:39])[C:18]([H:40])([H:41])[H:42])([H:19])([H:20])[H:21]", "smiles3Dx": "C([C:1]#[5N:2]->[Ru+2:3]1(<-[3H-:4])(<-[4H-:5])(<-[6C-:6]#[O+:7])<-[1N:8]([C:9]([H:22])([H:23])[H:24])([C:10]([H:25])([H:26])[H:27])[C:11]([H:28])([H:29])[C:12]([H:30])([H:31])[N:13]([H:32])[C:14]([H:33])([H:34])[C:15]([H:35])([H:36])[2N:16]->1([C:17]([H:37])([H:38])[H:39])[C:18]([H:40])([H:41])[H:42])([H:19])([H:20])[H:21]", "dummies": []}
C     -1.3336     4.6424    -0.3454
C     -0.9325     3.2402    -0.2406
N     -0.5973     2.0609    -0.1543
Ru     0.0000     0.0000     0.0000
H      0.6390    -1.5275     0.2354
H      0.2730     0.2806     1.6407
C      2.0135     0.7305    -0.1459
O      3.1444     1.1418    -0.2252
N     -2.0875    -0.6414     0.6178
C     -2.0005    -0.8012     2.0339
C     -2.9697     0.4394     0.3481
C     -2.6737    -1.8483     0.0535
C     -1.7575    -3.0761    -0.0811
N     -1.5897    -3.4618    -1.4904
C     -0.4563    -2.7769    -2.1209
C     -0.8509    -1.3824    -2.6703
N     -0.0328    -0.2919    -2.2362
C      1.3116    -0.4922    -2.6950
C     -0.5274     0.9056    -2.8209
H     -0.6345     5.2719     0.2425
H     -2.3628     4.7625     0.0509
H     -1.3079     4.9550    -1.4095
H     -1.2509    -1.5845     2.2754
H     -2.9790    -1.0934     2.4833
H     -1.6773     0.1457     2.5186
H     -2.6856     1.3451     0.9248
H     -2.9321     0.6877    -0.7309
H     -4.0226     0.1800     0.6149
H     -3.1323    -1.6374    -0.9276
H     -3.5324    -2.1599     0.6986
H     -2.2651    -3.9202     0.4400
H     -0.8047    -2.9833     0.4599
H     -1.3812    -4.4884    -1.5106
H     -0.1230    -3.3891    -2.9895
H      0.4212    -2.7662    -1.4558
H     -1.8900    -1.1650    -2.4156
H     -0.8166    -1.4444    -3.7867
H      1.3379    -0.9012    -3.7325
H      1.8902     0.4587    -2.6956
H      1.8341    -1.2036    -2.0252
H      0.1075     1.7707    -2.5316
H     -0.5352     0.8377    -3.9352
H     -1.5616     1.1052    -2.4746
