37
{"conf": 0, "E": 65.72, "rms": -1.0, "geom": "OH", "total_charge": 0, "CA_charge": 2, "smiles": "C[1N:1]1([CH3:2])->[Ru+2:3]2(<-[3H-:4])(<-[4C-:5]#[O+:6])(<-[5H-:7])<-[2N@H:8]([CH2:9][CH2:10]1)[CH2:11][CH2:12][6N:13]->2([CH3:14])[CH3:15]", "smiles3D": "C([1N:1]1([C:2]([H:19])([H:20])[H:21])->[Ru+2:3]2(<-[3H-:4])(<-[4C-:5]#[O+:6])(<-[5H-:7])<-[2N@:8]([H:22])([C:9]([H:23])([H:24])[C:10]1([H:25])[H:26])[C:11]([H:27])([H:28])[C:12]([H:29])([H:30])[6N:13]->2([C:14]([H:31])([H:32])[H:33])[C:15]([H:34])([H:35])[H:36])([H:16])([H:17])[H:18]", "smiles3Dx": "C([1N:1]1([C:2]([H:19])([H:20])[H:21])->[Ru+2:3]2(<-[3H-:4])(<-[4C-:5]#[O+:6])(<-[5H-:7])<-[2N@:8]([H:22])([C:9]([H:23])([H:24])[C:10]1([H:25])[H:26])[C:11]([H:27])([H:28])[C:12]([H:29])([H:30])[6N:13]->2([C:14]([H:31])([H:32])[H:33])[C:15]([H:34])([H:35])[H:36])([H:16])([H:17])[H:18]", "dummies": []}
C      0.4753     2.8007    -0.7036
N      0.0264     1.6475    -1.3878
C      0.8978     1.3302    -2.4521
Ru     0.0000     0.0000     0.0000
H     -0.2506     1.1026     1.2579
C      2.1083     0.0249     0.4061
O      3.2923     0.0392     0.6340
H      0.2704    -1.1106    -1.2455
N     -2.0437    -0.0558    -0.4206
C     -2.3419     1.2625    -0.7538
C     -1.3398     1.7765    -1.8218
C     -2.7361    -0.6294     0.6762
C     -1.7965    -1.1407     1.8117
N     -0.5080    -1.5581     1.3626
C      0.4255    -1.6021     2.4204
C     -0.5511    -2.7821     0.6642
H     -0.2428     3.0866     0.0945
H      1.4598     2.6023    -0.2291
H      0.5833     3.6604    -1.4052
H      0.5944     0.3719    -2.9250
H      1.9402     1.2187    -2.0814
H      0.8766     2.1312    -3.2271
H     -2.1620    -0.5835    -1.1627
H     -2.2704     1.9068     0.1490
H     -3.3773     1.3277    -1.1614
H     -1.5828     2.8404    -2.0546
H     -1.5133     1.1835    -2.7498
H     -3.3390    -1.4958     0.3113
H     -3.4481     0.1060     1.1188
H     -1.6765    -0.3053     2.5400
H     -2.3046    -1.9795     2.3440
H      0.0528    -2.2538     3.2444
H      1.4036    -1.9997     2.0695
H      0.5910    -0.5783     2.8207
H     -0.8651    -3.6111     1.3398
H     -1.2676    -2.7206    -0.1823
H      0.4535    -3.0195     0.2491
37
{"conf": 1, "E": 65.72, "rms": -1.0, "geom": "OH", "total_charge": 0, "CA_charge": 2, "smiles": "C[1N:1]1([CH3:2])->[Ru+2:3]2(<-[3H-:4])(<-[4C-:5]#[O+:6])(<-[5H-:7])<-[2N@H:8]([CH2:9][CH2:10]1)[CH2:11][CH2:12][6N:13]->2([CH3:14])[CH3:15]", "smiles3D": "C([1N:1]1([C:2]([H:19])([H:20])[H:21])->[Ru+2:3]2(<-[3H-:4])(<-[4C-:5]#[O+:6])(<-[5H-:7])<-[2N@:8]([H:22])([C:9]([H:23])([H:24])[C:10]1([H:25])[H:26])[C:11]([H:27])([H:28])[C:12]([H:29])([H:30])[6N:13]->2([C:14]([H:31])([H:32])[H:33])[C:15]([H:34])([H:35])[H:36])([H:16])([H:17])[H:18]", "smiles3Dx": "C([1N:1]1([C:2]([H:19])([H:20])[H:21])->[Ru+2:3]2(<-[3H-:4])(<-[4C-:5]#[O+:6])(<-[5H-:7])<-[2N@:8]([H:22])([C:9]([H:23])([H:24])[C:10]1([H:25])[H:26])[C:11]([H:27])([H:28])[C:12]([H:29])([H:30])[6N:13]->2([C:14]([H:31])([H:32])[H:33])[C:15]([H:34])([H:35])[H:36])([H:16])([H:17])[H:18]", "dummies": []}
C      0.3722     1.5929    -2.4316
N      0.1505     0.2303    -2.1367
C     -1.0581    -0.2152    -2.7201
Ru     0.0000     0.0000     0.0000
H     -1.0830    -1.2761    -0.2439
C     -1.6530     1.3478     0.2474
O     -2.5815     2.1047     0.3859
H      1.0656     1.2868     0.2578
N      1.6326    -1.2805    -0.2280
C      1.4798    -1.7729    -1.5210
C      1.2667    -0.5973    -2.5117
C      1.6488    -2.2189     0.8353
C      0.5387    -1.9741     1.9036
N      0.1450    -0.6091     2.0373
C      1.1247     0.1739     2.6814
C     -1.1100    -0.4866     2.6716
H      0.5301     1.7357    -3.5258
H     -0.4986     2.2066    -2.1129
H      1.2710     1.9617    -1.8929
H     -1.9185     0.3267    -2.2733
H     -1.2019    -1.3021    -2.5406
H     -1.0557    -0.0369    -3.8207
H      2.3951    -0.7700    -0.1929
H      2.3885    -2.3447    -1.8209
H      0.5990    -2.4490    -1.5672
H      2.2089    -0.0013    -2.5245
H      1.1226    -1.0167    -3.5356
H      2.6391    -2.1676     1.3490
H      1.5324    -3.2569     0.4444
H      0.8966    -2.3652     2.8854
H     -0.3463    -2.5817     1.6031
H      0.8210     1.2442     2.6764
H      2.0977     0.0898     2.1524
H      1.2614    -0.1553     3.7374
H     -1.3686     0.5831     2.8352
H     -1.9004    -0.9408     2.0355
H     -1.1019    -1.0045     3.6586
