43
{"conf": 0, "E": 58.29, "rms": -1.0, "geom": "OH", "total_charge": 0, "CA_charge": 2, "smiles": "C[C:1]#[5N:2]->[Ru+2:3]1(<-[3H-:4])(<-[4C-:5]#[O+:6])(<-[6H-:7])<-[1N@H:8]([CH2:9][CH2:10][N:11]([CH3:12])[CH3:13])[CH2:14][CH2:15][2N:16]->1([CH3:17])[CH3:18]", "smiles3D": "C([C:1]#[5N:2]->[Ru+2:3]1(<-[3H-:4])(<-[4C-:5]#[O+:6])(<-[6H-:7])<-[1N@@:8]([C:9]([C:10]([N:11]([C:12]([H:27])([H:28])[H:29])[C:13]([H:30])([H:31])[H:32])([H:25])[H:26])([H:23])[H:24])([H:22])[C:14]([H:33])([H:34])[C:15]([H:35])([H:36])[2N:16]->1([C:17]([H:37])([H:38])[H:39])[C:18]([H:40])([H:41])[H:42])([H:19])([H:20])[H:21]", "smiles3Dx": "C([C:1]#[5N:2]->[Ru+2:3]1(<-[3H-:4])(<-[4C-:5]#[O+:6])(<-[6H-:7])<-[1N@@:8]([C:9]([C:10]([N:11]([C:12]([H:27])([H:28])[H:29])[C:13]([H:30])([H:31])[H:32])([H:25])[H:26])([H:23])[H:24])([H:22])[C:14]([H:33])([H:34])[C:15]([H:35])([H:36])[2N:16]->1([C:17]([H:37])([H:38])[H:39])[C:18]([H:40])([H:41])[H:42])([H:19])([H:20])[H:21]", "dummies": []}
C     -0.8354     4.1923     2.2619
C     -0.5810     2.9250     1.5778
N     -0.3683     1.8610     1.0015
Ru     0.0000     0.0000     0.0000
H      0.3142    -1.5053    -0.7018
C      0.2401    -0.8918     1.9324
O      0.3738    -1.3941     3.0205
H      1.6495     0.3634    -0.0562
N     -2.1010    -0.3829    -0.0240
C     -2.3356    -1.7710    -0.1162
C     -3.7182    -2.1989     0.4182
N     -3.8869    -1.8107     1.8364
C     -5.3128    -1.6265     2.1509
C     -3.3139    -2.8260     2.7378
C     -2.6113     0.3956    -1.0838
C     -1.6577     0.4394    -2.3047
N     -0.3335     0.8434    -1.9535
C      0.6358     0.2955    -2.8254
C     -0.1890     2.2501    -1.8977
H     -1.7532     4.1017     2.8784
H      0.0266     4.4394     2.9151
H     -0.9726     4.9964     1.5101
H     -2.4371    -0.0676     0.7668
H     -2.2458    -2.1086    -1.1719
H     -1.5543    -2.2940     0.4687
H     -4.4899    -1.7163    -0.2199
H     -3.8431    -3.2974     0.2829
H     -5.8929    -2.5544     1.9464
H     -5.4406    -1.3452     3.2187
H     -5.7318    -0.7942     1.5454
H     -3.8261    -3.8073     2.6212
H     -3.4089    -2.4950     3.7945
H     -2.2306    -2.9588     2.5413
H     -2.7683     1.4364    -0.7221
H     -3.5975     0.0035    -1.4185
H     -2.0852     1.1368    -3.0637
H     -1.6455    -0.5778    -2.7570
H      0.4669     0.6439    -3.8710
H      1.6573     0.6008    -2.5060
H      0.5886    -0.8139    -2.8118
H     -1.0143     2.7139    -1.3200
H     -0.1910     2.6919    -2.9217
H      0.7722     2.5062    -1.4002
43
{"conf": 1, "E": 58.12, "rms": -1.0, "geom": "OH", "total_charge": 0, "CA_charge": 2, "smiles": "C[C:1]#[5N:2]->[Ru+2:3]1(<-[3H-:4])(<-[4C-:5]#[O+:6])(<-[6H-:7])<-[1N@H:8]([CH2:9][CH2:10][N:11]([CH3:12])[CH3:13])[CH2:14][CH2:15][2N:16]->1([CH3:17])[CH3:18]", "smiles3D": "C([C:1]#[5N:2]->[Ru+2:3]1(<-[3H-:4])(<-[4C-:5]#[O+:6])(<-[6H-:7])<-[1N@@:8]([C:9]([C:10]([N:11]([C:12]([H:27])([H:28])[H:29])[C:13]([H:30])([H:31])[H:32])([H:25])[H:26])([H:23])[H:24])([H:22])[C:14]([H:33])([H:34])[C:15]([H:35])([H:36])[2N:16]->1([C:17]([H:37])([H:38])[H:39])[C:18]([H:40])([H:41])[H:42])([H:19])([H:20])[H:21]", "smiles3Dx": "C([C:1]#[5N:2]->[Ru+2:3]1(<-[3H-:4])(<-[4C-:5]#[O+:6])(<-[6H-:7])<-[1N@@:8]([C:9]([C:10]([N:11]([C:12]([H:27])([H:28])[H:29])[C:13]([H:30])([H:31])[H:32])([H:25])[H:26])([H:23])[H:24])([H:22])[C:14]([H:33])([H:34])[C:15]([H:35])([H:36])[2N:16]->1([C:17]([H:37])([H:38])[H:39])[C:18]([H:40])([H:41])[H:42])([H:19])([H:20])[H:21]", "dummies": []}
C     -1.2913    -4.6091    -0.6796
C     -0.9021    -3.2142    -0.4754
N     -0.5736    -2.0428    -0.3044
Ru     0.0000     0.0000     0.0000
H      0.3816     1.6207     0.2908
C     -1.7337     0.2152     1.2409
O     -2.7094     0.3361     1.9392
H     -0.9183     0.4632    -1.3406
N      1.2847    -0.6238     1.6088
C      1.1260     0.2173     2.7264
C      2.0038    -0.1937     3.9267
N      1.5466     0.4662     5.1689
C      2.0036     1.8663     5.2244
C      2.0583    -0.2605     6.3423
C      2.5957    -0.6548     1.0819
C      2.6125    -1.0525    -0.4121
N      1.7572    -0.2407    -1.2092
C      1.4124    -0.8694    -2.4302
C      2.2963     1.0424    -1.4684
H     -1.6996    -4.7327    -1.7037
H     -2.0654    -4.8896     0.0639
H     -0.4035    -5.2624    -0.5540
H      1.0343    -1.4756     1.8396
H      0.0658     0.1821     3.0489
H      1.3664     1.2627     2.4357
H      1.9146    -1.2983     4.0261
H      3.0741     0.0356     3.7231
H      1.6621     2.3446     6.1679
H      1.5600     2.4537     4.3947
H      3.1131     1.9345     5.1692
H      3.1707    -0.3023     6.3369
H      1.7175     0.2301     7.2798
H      1.6558    -1.2963     6.3564
H      3.2026    -1.4006     1.6480
H      3.0872     0.3362     1.1912
H      3.6611    -0.9919    -0.7873
H      2.2901    -2.1171    -0.4722
H      2.3132    -0.9887    -3.0762
H      0.9761    -1.8727    -2.2532
H      0.6599    -0.2589    -2.9761
H      2.5344     1.5703    -0.5243
H      3.2279     0.9663    -2.0759
H      1.5556     1.6586    -2.0256
43
{"conf": 2, "E": 68.61, "rms": -1.0, "geom": "OH", "total_charge": 0, "CA_charge": 2, "smiles": "C[C:1]#[5N:2]->[Ru+2:3]1(<-[3H-:4])(<-[4C-:5]#[O+:6])(<-[6H-:7])<-[1N@H:8]([CH2:9][CH2:10][N:11]([CH3:12])[CH3:13])[CH2:14][CH2:15][2N:16]->1([CH3:17])[CH3:18]", "smiles3D": "C([C:1]#[5N:2]->[Ru+2:3]1(<-[3H-:4])(<-[4C-:5]#[O+:6])(<-[6H-:7])<-[1N@@:8]([C:9]([C:10]([N:11]([C:12]([H:27])([H:28])[H:29])[C:13]([H:30])([H:31])[H:32])([H:25])[H:26])([H:23])[H:24])([H:22])[C:14]([H:33])([H:34])[C:15]([H:35])([H:36])[2N:16]->1([C:17]([H:37])([H:38])[H:39])[C:18]([H:40])([H:41])[H:42])([H:19])([H:20])[H:21]", "smiles3Dx": "C([C:1]#[5N:2]->[Ru+2:3]1(<-[3H-:4])(<-[4C-:5]#[O+:6])(<-[6H-:7])<-[1N@@:8]([C:9]([C:10]([N:11]([C:12]([H:27])([H:28])[H:29])[C:13]([H:30])([H:31])[H:32])([H:25])[H:26])([H:23])[H:24])([H:22])[C:14]([H:33])([H:34])[C:15]([H:35])([H:36])[2N:16]->1([C:17]([H:37])([H:38])[H:39])[C:18]([H:40])([H:41])[H:42])([H:19])([H:20])[H:21]", "dummies": []}
C     -4.7458     0.9032     0.2411
C     -3.3110     0.6302     0.1671
N     -2.1058     0.3991     0.1060
Ru     0.0000     0.0000     0.0000
H      1.6535    -0.2652    -0.1537
C      0.2932     2.0710    -0.4626
O      0.4586     3.2369    -0.7224
H     -0.1765    -0.3487    -1.6441
N      0.1460     0.2943     2.1318
C      1.0825     1.2779     2.5550
C      2.5384     1.1387     2.0614
N      3.1641    -0.1390     2.4663
C      4.2656    -0.4827     1.5513
C      3.6917    -0.0576     3.8413
C      0.2349    -0.9859     2.7545
C      0.5419    -2.1337     1.7567
N     -0.2104    -2.0580     0.5518
C      0.3618    -2.8461    -0.4720
C     -1.5703    -2.3977     0.7336
H     -5.1045     1.2659    -0.7440
H     -5.2852    -0.0277     0.5116
H     -4.9354     1.6779     1.0122
H     -0.6736     0.6360     2.3651
H      1.0897     1.3080     3.6684
H      0.7103     2.2693     2.2076
H      2.5593     1.2825     0.9647
H      3.1230     1.9999     2.4593
H      4.7440    -1.4362     1.8638
H      3.8788    -0.6411     0.5233
H      5.0357     0.3207     1.5279
H      4.0918    -1.0462     4.1535
H      2.8882     0.2040     4.5595
H      4.5029     0.7005     3.9214
H      1.0189    -0.9944     3.5409
H     -0.7313    -1.2213     3.2625
H      0.3518    -3.1081     2.2655
H      1.6275    -2.0840     1.5179
H     -0.2366    -2.7633    -1.4067
H      0.4030    -3.9176    -0.1668
H      1.3938    -2.4992    -0.6943
H     -2.1316    -2.2485    -0.2155
H     -2.0349    -1.7602     1.5124
H     -1.6711    -3.4639     1.0428
