43
{"conf": 0, "E": 58.61, "rms": -1.0, "geom": "OH", "total_charge": 0, "CA_charge": 2, "smiles": "C[C:1]#[6N:2]->[Ru+2:3]1(<-[3H-:4])(<-[4H-:5])(<-[5C-:6]#[O+:7])<-[1N@H:8]([CH2:9][CH2:10][N:11]([CH3:12])[CH3:13])[CH2:14][CH2:15][2N:16]->1([CH3:17])[CH3:18]", "smiles3D": "C([C:1]#[6N:2]->[Ru+2:3]1(<-[3H-:4])(<-[4H-:5])(<-[5C-:6]#[O+:7])<-[1N@@:8]([C:9]([C:10]([N:11]([C:12]([H:27])([H:28])[H:29])[C:13]([H:30])([H:31])[H:32])([H:25])[H:26])([H:23])[H:24])([H:22])[C:14]([H:33])([H:34])[C:15]([H:35])([H:36])[2N:16]->1([C:17]([H:37])([H:38])[H:39])[C:18]([H:40])([H:41])[H:42])([H:19])([H:20])[H:21]", "smiles3Dx": "C([C:1]#[6N:2]->[Ru+2:3]1(<-[3H-:4])(<-[4H-:5])(<-[5C-:6]#[O+:7])<-[1N@@:8]([C:9]([C:10]([N:11]([C:12]([H:27])([H:28])[H:29])[C:13]([H:30])([H:31])[H:32])([H:25])[H:26])([H:23])[H:24])([H:22])[C:14]([H:33])([H:34])[C:15]([H:35])([H:36])[2N:16]->1([C:17]([H:37])([H:38])[H:39])[C:18]([H:40])([H:41])[H:42])([H:19])([H:20])[H:21]", "dummies": []}
C      1.2568    -0.7627     4.6031
C      0.8743    -0.5319     3.2104
N      0.5548    -0.3379     2.0401
Ru     0.0000     0.0000     0.0000
H     -0.1817    -1.6669    -0.2145
H     -1.6245     0.0691     0.4543
C      0.1067     2.1186     0.3209
O      0.1655     3.3095     0.5009
N     -0.4505     0.3398    -2.0610
C     -1.6897    -0.2346    -2.3978
C     -2.8607     0.7371    -2.1650
N     -4.1546     0.0579    -2.3963
C     -5.1654     1.0224    -2.8597
C     -4.6333    -0.5971    -1.1657
C      0.6401    -0.2060    -2.7459
C      1.9724     0.2288    -2.0910
N      2.0427    -0.1357    -0.7089
C      2.4692    -1.4751    -0.5295
C      2.8897     0.7326     0.0253
H      0.8800    -1.7534     4.9306
H      2.3624    -0.7397     4.6911
H      0.8181     0.0302     5.2432
H     -0.4663     1.2442    -2.2120
H     -1.8351    -1.1373    -1.7713
H     -1.7029    -0.5444    -3.4702
H     -2.7222     1.5780    -2.8820
H     -2.8062     1.1797    -1.1470
H     -4.8622     1.4506    -3.8393
H     -5.2989     1.8491    -2.1262
H     -6.1416     0.5146    -3.0173
H     -5.5737    -1.1526    -1.3710
H     -3.8937    -1.3398    -0.8023
H     -4.8233     0.1457    -0.3587
H      0.6312     0.1414    -3.8060
H      0.5783    -1.3158    -2.7392
H      2.0483     1.3346    -2.2048
H      2.8163    -0.2284    -2.6598
H      3.5331    -1.6008    -0.8389
H      1.8481    -2.1723    -1.1271
H      2.3732    -1.7603     0.5410
H      2.5879     1.7910    -0.1058
H      2.8427     0.4911     1.1084
H      3.9459     0.6294    -0.3169
43
{"conf": 1, "E": 62.79, "rms": -1.0, "geom": "OH", "total_charge": 0, "CA_charge": 2, "smiles": "C[C:1]#[6N:2]->[Ru+2:3]1(<-[3H-:4])(<-[4H-:5])(<-[5C-:6]#[O+:7])<-[1N@H:8]([CH2:9][CH2:10][N:11]([CH3:12])[CH3:13])[CH2:14][CH2:15][2N:16]->1([CH3:17])[CH3:18]", "smiles3D": "C([C:1]#[6N:2]->[Ru+2:3]1(<-[3H-:4])(<-[4H-:5])(<-[5C-:6]#[O+:7])<-[1N@@:8]([C:9]([C:10]([N:11]([C:12]([H:27])([H:28])[H:29])[C:13]([H:30])([H:31])[H:32])([H:25])[H:26])([H:23])[H:24])([H:22])[C:14]([H:33])([H:34])[C:15]([H:35])([H:36])[2N:16]->1([C:17]([H:37])([H:38])[H:39])[C:18]([H:40])([H:41])[H:42])([H:19])([H:20])[H:21]", "smiles3Dx": "C([C:1]#[6N:2]->[Ru+2:3]1(<-[3H-:4])(<-[4H-:5])(<-[5C-:6]#[O+:7])<-[1N@@:8]([C:9]([C:10]([N:11]([C:12]([H:27])([H:28])[H:29])[C:13]([H:30])([H:31])[H:32])([H:25])[H:26])([H:23])[H:24])([H:22])[C:14]([H:33])([H:34])[C:15]([H:35])([H:36])[2N:16]->1([C:17]([H:37])([H:38])[H:39])[C:18]([H:40])([H:41])[H:42])([H:19])([H:20])[H:21]", "dummies": []}
C      3.2127     2.1482    -2.9006
C      2.2389     1.4995    -2.0231
N      1.4220     0.9533    -1.2858
Ru     0.0000     0.0000     0.0000
H      0.4275     1.0640     1.2420
H     -1.1787     1.1103    -0.4794
C     -0.6252    -1.2576    -1.6220
O     -0.9781    -1.9642    -2.5333
N     -1.3455    -1.0247     1.3050
C     -2.2686    -0.1272     1.8683
C     -3.4695     0.1513     0.9256
N     -4.6954    -0.6240     1.2261
C     -5.3462    -0.2160     2.4818
C     -4.4901    -2.0789     1.1734
C     -0.5143    -1.6513     2.2391
C      0.6748    -2.3462     1.5348
N      1.4426    -1.4371     0.7397
C      2.0955    -2.0943    -0.3338
C      2.3970    -0.7270     1.5095
H      4.1763     1.6005    -2.8516
H      3.3660     3.1966    -2.5718
H      2.8345     2.1389    -3.9435
H     -1.7808    -1.6701     0.8252
H     -1.7410     0.8320     2.0562
H     -2.6425    -0.5103     2.8425
H     -3.7093     1.2371     0.9578
H     -3.1649    -0.0538    -0.1219
H     -4.8055    -0.5987     3.3731
H     -6.3822    -0.6157     2.5075
H     -5.4192     0.8909     2.5454
H     -3.8407    -2.4298     2.0044
H     -5.4689    -2.5996     1.2465
H     -4.0361    -2.3675     0.2014
H     -1.0945    -2.4184     2.8045
H     -0.1209    -0.9047     2.9626
H      0.2507    -3.1557     0.8973
H      1.3175    -2.8275     2.3094
H      2.5968    -1.3527    -0.9914
H      2.8636    -2.8044     0.0523
H      1.3745    -2.6691    -0.9487
H      3.1944    -1.4093     1.8863
H      1.9180    -0.2366     2.3807
H      2.8695     0.0638     0.8866
43
{"conf": 2, "E": 62.24, "rms": -1.0, "geom": "OH", "total_charge": 0, "CA_charge": 2, "smiles": "C[C:1]#[6N:2]->[Ru+2:3]1(<-[3H-:4])(<-[4H-:5])(<-[5C-:6]#[O+:7])<-[1N@H:8]([CH2:9][CH2:10][N:11]([CH3:12])[CH3:13])[CH2:14][CH2:15][2N:16]->1([CH3:17])[CH3:18]", "smiles3D": "C([C:1]#[6N:2]->[Ru+2:3]1(<-[3H-:4])(<-[4H-:5])(<-[5C-:6]#[O+:7])<-[1N@@:8]([C:9]([C:10]([N:11]([C:12]([H:27])([H:28])[H:29])[C:13]([H:30])([H:31])[H:32])([H:25])[H:26])([H:23])[H:24])([H:22])[C:14]([H:33])([H:34])[C:15]([H:35])([H:36])[2N:16]->1([C:17]([H:37])([H:38])[H:39])[C:18]([H:40])([H:41])[H:42])([H:19])([H:20])[H:21]", "smiles3Dx": "C([C:1]#[6N:2]->[Ru+2:3]1(<-[3H-:4])(<-[4H-:5])(<-[5C-:6]#[O+:7])<-[1N@@:8]([C:9]([C:10]([N:11]([C:12]([H:27])([H:28])[H:29])[C:13]([H:30])([H:31])[H:32])([H:25])[H:26])([H:23])[H:24])([H:22])[C:14]([H:33])([H:34])[C:15]([H:35])([H:36])[2N:16]->1([C:17]([H:37])([H:38])[H:39])[C:18]([H:40])([H:41])[H:42])([H:19])([H:20])[H:21]", "dummies": []}
C      0.5363     3.9755     2.6936
C      0.3738     2.7733     1.8766
N      0.2372     1.7626     1.1917
Ru     0.0000     0.0000     0.0000
H     -1.6672     0.2585    -0.0150
H      0.1283     0.9258    -1.4034
C      2.1370    -0.2063    -0.0710
O      3.3366    -0.3220    -0.1114
N     -0.2064    -1.8159    -1.1163
C     -1.4842    -1.9453    -1.7088
C     -1.6757    -1.0511    -2.9538
N     -2.0634     0.3305    -2.5947
C     -3.5198     0.4371    -2.3873
C     -1.6617     1.2644    -3.6606
C      0.1034    -2.8256    -0.1824
C     -0.5541    -2.5728     1.1950
N     -0.2153    -1.2887     1.7306
C      0.9915    -1.3155     2.4731
C     -1.2595    -0.7721     2.5356
H      0.7328     4.8464     2.0350
H     -0.3904     4.1540     3.2768
H      1.3898     3.8372     3.3887
H      0.4339    -1.8231    -1.7715
H     -2.2632    -1.7042    -0.9600
H     -1.6351    -3.0018    -2.0318
H     -0.7236    -1.0646    -3.5291
H     -2.4407    -1.5119    -3.6205
H     -3.7824     1.4657    -2.0586
H     -4.0813     0.2038    -3.3197
H     -3.8587    -0.2510    -1.5864
H     -0.5574     1.2556    -3.7841
H     -2.1351     0.9955    -4.6316
H     -1.9484     2.3040    -3.3910
H      1.2064    -2.8590    -0.0434
H     -0.2184    -3.8251    -0.5562
H     -1.6561    -2.6659     1.0615
H     -0.2345    -3.3822     1.8938
H      0.8440    -1.8216     3.4560
H      1.7870    -1.8589     1.9226
H      1.3406    -0.2765     2.6569
H     -1.4774    -1.4605     3.3855
H     -0.9794     0.2223     2.9464
H     -2.1864    -0.6497     1.9368
43
{"conf": 3, "E": 65.03, "rms": -1.0, "geom": "OH", "total_charge": 0, "CA_charge": 2, "smiles": "C[C:1]#[6N:2]->[Ru+2:3]1(<-[3H-:4])(<-[4H-:5])(<-[5C-:6]#[O+:7])<-[1N@H:8]([CH2:9][CH2:10][N:11]([CH3:12])[CH3:13])[CH2:14][CH2:15][2N:16]->1([CH3:17])[CH3:18]", "smiles3D": "C([C:1]#[6N:2]->[Ru+2:3]1(<-[3H-:4])(<-[4H-:5])(<-[5C-:6]#[O+:7])<-[1N@@:8]([C:9]([C:10]([N:11]([C:12]([H:27])([H:28])[H:29])[C:13]([H:30])([H:31])[H:32])([H:25])[H:26])([H:23])[H:24])([H:22])[C:14]([H:33])([H:34])[C:15]([H:35])([H:36])[2N:16]->1([C:17]([H:37])([H:38])[H:39])[C:18]([H:40])([H:41])[H:42])([H:19])([H:20])[H:21]", "smiles3Dx": "C([C:1]#[6N:2]->[Ru+2:3]1(<-[3H-:4])(<-[4H-:5])(<-[5C-:6]#[O+:7])<-[1N@@:8]([C:9]([C:10]([N:11]([C:12]([H:27])([H:28])[H:29])[C:13]([H:30])([H:31])[H:32])([H:25])[H:26])([H:23])[H:24])([H:22])[C:14]([H:33])([H:34])[C:15]([H:35])([H:36])[2N:16]->1([C:17]([H:37])([H:38])[H:39])[C:18]([H:40])([H:41])[H:42])([H:19])([H:20])[H:21]", "dummies": []}
C     -0.6361    -1.9170     4.3897
C     -0.4415    -1.3377     3.0609
N     -0.2795    -0.8505     1.9448
Ru     0.0000     0.0000     0.0000
H      0.7150     1.3471     0.7220
H      1.5238    -0.7217    -0.1142
C     -0.8256    -1.7773    -0.8749
O     -1.2888    -2.7762    -1.3668
N      0.1532     0.8679    -1.9432
C      1.4712     1.0080    -2.4334
C      2.4614     1.8172    -1.5717
N      2.1944     3.2720    -1.6337
C      2.6307     3.9291    -0.3913
C      2.8762     3.8936    -2.7829
C     -0.6290     2.0190    -1.8594
C     -2.0150     1.6685    -1.2620
N     -1.9022     1.0494     0.0300
C     -1.8392     2.0098     1.0704
C     -2.9633     0.1454     0.2823
H     -1.4105    -2.7096     4.3374
H     -0.9646    -1.1249     5.0936
H      0.3188    -2.3554     4.7455
H     -0.2732     0.2924    -2.5185
H      1.4284     1.4603    -3.4498
H      1.8892    -0.0195    -2.5432
H      2.4301     1.4323    -0.5367
H      3.4955     1.5967    -1.9232
H      2.0475     3.5398     0.4705
H      3.7148     3.7580    -0.2053
H      2.4381     5.0226    -0.4436
H      2.5543     3.4214    -3.7336
H      2.6052     4.9693    -2.8494
H      3.9822     3.8064    -2.6934
H     -0.1456     2.7647    -1.2037
H     -0.7690     2.4661    -2.8712
H     -2.5216     0.9847    -1.9812
H     -2.6234     2.6018    -1.2004
H     -1.0509     2.7633     0.8650
H     -2.8120     2.5433     1.1823
H     -1.5954     1.5083     2.0319
H     -3.9325     0.6905     0.3638
H     -3.0552    -0.5992    -0.5341
H     -2.7817    -0.4020     1.2319
