43
{"conf": 0, "E": 63.87, "rms": -1.0, "geom": "OH", "total_charge": 0, "CA_charge": 2, "smiles": "C[C:1]#[3N:2]->[Ru+2:3]1(<-[4H-:4])(<-[5C-:5]#[O+:6])(<-[6H-:7])<-[1N@H:8]([CH2:9][CH2:10][N:11]([CH3:12])[CH3:13])[CH2:14][CH2:15][2N:16]->1([CH3:17])[CH3:18]", "smiles3D": "C([C:1]#[3N:2]->[Ru+2:3]1(<-[4H-:4])(<-[5C-:5]#[O+:6])(<-[6H-:7])<-[1N@@:8]([C:9]([C:10]([N:11]([C:12]([H:27])([H:28])[H:29])[C:13]([H:30])([H:31])[H:32])([H:25])[H:26])([H:23])[H:24])([H:22])[C:14]([H:33])([H:34])[C:15]([H:35])([H:36])[2N:16]->1([C:17]([H:37])([H:38])[H:39])[C:18]([H:40])([H:41])[H:42])([H:19])([H:20])[H:21]", "smiles3Dx": "C([C:1]#[3N:2]->[Ru+2:3]1(<-[4H-:4])(<-[5C-:5]#[O+:6])(<-[6H-:7])<-[1N@@:8]([C:9]([C:10]([N:11]([C:12]([H:27])([H:28])[H:29])[C:13]([H:30])([H:31])[H:32])([H:25])[H:26])([H:23])[H:24])([H:22])[C:14]([H:33])([H:34])[C:15]([H:35])([H:36])[2N:16]->1([C:17]([H:37])([H:38])[H:39])[C:18]([H:40])([H:41])[H:42])([H:19])([H:20])[H:21]", "dummies": []}
C      0.6013    -3.4743     3.3154
C      0.4217    -2.4227     2.3155
N      0.2721    -1.5407     1.4730
Ru     0.0000     0.0000     0.0000
H     -1.6165    -0.4708    -0.1130
C     -0.4831     1.5364    -1.4219
O     -0.7550     2.3981    -2.2205
H     -0.3812     1.0736     1.2479
N      0.5961    -1.2732    -1.6348
C      0.4589    -2.6518    -1.3656
C     -1.0011    -3.0890    -1.1346
N     -1.9094    -2.5751    -2.1833
C     -3.3072    -2.6862    -1.7342
C     -1.7437    -3.3201    -3.4444
C      1.9183    -0.8806    -1.9522
C      2.7391    -0.4856    -0.6988
N      2.1027     0.5254     0.0811
C      2.5341     0.5053     1.4329
C      2.3060     1.8282    -0.4449
H      1.6257    -3.4121     3.7367
H      0.4569    -4.4654     2.8383
H     -0.1422    -3.3427     4.1281
H      0.0639    -1.0663    -2.3502
H      1.0546    -2.9158    -0.4682
H      0.8620    -3.2388    -2.2225
H     -1.3184    -2.7229    -0.1381
H     -1.0446    -4.2008    -1.0817
H     -3.4674    -2.0771    -0.8190
H     -3.9949    -2.2865    -2.5105
H     -3.5780    -3.7440    -1.5177
H     -2.4621    -2.9504    -4.2079
H     -0.7304    -3.1542    -3.8637
H     -1.9074    -4.4110    -3.2974
H      1.8810    -0.0072    -2.6401
H      2.4595    -1.6976    -2.4845
H      3.7478    -0.1404    -1.0276
H      2.8801    -1.4084    -0.0923
H      2.4497    -0.5086     1.8692
H      3.5991     0.8256     1.5145
H      1.9060     1.1951     2.0384
H      2.0724     1.8681    -1.5262
H      1.6431     2.5501     0.0815
H      3.3644     2.1536    -0.3112
43
{"conf": 1, "E": 63.58, "rms": -1.0, "geom": "OH", "total_charge": 0, "CA_charge": 2, "smiles": "C[C:1]#[3N:2]->[Ru+2:3]1(<-[4H-:4])(<-[5C-:5]#[O+:6])(<-[6H-:7])<-[1N@H:8]([CH2:9][CH2:10][N:11]([CH3:12])[CH3:13])[CH2:14][CH2:15][2N:16]->1([CH3:17])[CH3:18]", "smiles3D": "C([C:1]#[3N:2]->[Ru+2:3]1(<-[4H-:4])(<-[5C-:5]#[O+:6])(<-[6H-:7])<-[1N@@:8]([C:9]([C:10]([N:11]([C:12]([H:27])([H:28])[H:29])[C:13]([H:30])([H:31])[H:32])([H:25])[H:26])([H:23])[H:24])([H:22])[C:14]([H:33])([H:34])[C:15]([H:35])([H:36])[2N:16]->1([C:17]([H:37])([H:38])[H:39])[C:18]([H:40])([H:41])[H:42])([H:19])([H:20])[H:21]", "smiles3Dx": "C([C:1]#[3N:2]->[Ru+2:3]1(<-[4H-:4])(<-[5C-:5]#[O+:6])(<-[6H-:7])<-[1N@@:8]([C:9]([C:10]([N:11]([C:12]([H:27])([H:28])[H:29])[C:13]([H:30])([H:31])[H:32])([H:25])[H:26])([H:23])[H:24])([H:22])[C:14]([H:33])([H:34])[C:15]([H:35])([H:36])[2N:16]->1([C:17]([H:37])([H:38])[H:39])[C:18]([H:40])([H:41])[H:42])([H:19])([H:20])[H:21]", "dummies": []}
C      4.0594    -2.6134    -0.3495
C      2.8331    -1.8234    -0.2480
N      1.8017    -1.1614    -0.1604
Ru     0.0000     0.0000     0.0000
H      0.9733     1.3672     0.2004
C     -1.6888     1.3225     0.1235
O     -2.6363     2.0653     0.1934
H      0.0123     0.2068    -1.6770
N     -0.1177    -0.3365     2.1193
C      1.1822    -0.4440     2.6571
C      1.3049     0.0930     4.0991
N      0.4454    -0.6619     5.0356
C      0.0484     0.1886     6.1690
C      1.1403    -1.8592     5.5411
C     -0.9633    -1.4605     2.3124
C     -0.9583    -2.4358     1.1076
N     -1.2046    -1.7893    -0.1368
C     -2.5739    -1.4686    -0.3227
C     -0.7592    -2.5663    -1.2362
H      4.8091    -2.0572    -0.9490
H      4.4630    -2.8006     0.6668
H      3.8352    -3.5815    -0.8427
H     -0.5255     0.4024     2.4762
H      1.8585     0.1589     2.0176
H      1.5365    -1.4985     2.6255
H      1.0149     1.1677     4.0699
H      2.3725     0.0641     4.4160
H     -0.5638     1.0427     5.8074
H      0.9392     0.5810     6.7091
H     -0.5849    -0.3851     6.8799
H      2.0456    -1.5854     6.1280
H      0.4573    -2.4504     6.1883
H      1.4420    -2.5203     4.7024
H     -2.0059    -1.1095     2.4800
H     -0.6610    -2.0317     3.2169
H     -1.7225    -3.2285     1.2868
H      0.0408    -2.9272     1.0871
H     -2.6957    -0.8556    -1.2434
H     -2.9706    -0.8888     0.5325
H     -3.1874    -2.3938    -0.4279
H     -0.8592    -1.9832    -2.1782
H      0.3042    -2.8523    -1.1223
H     -1.3609    -3.5006    -1.3280
43
{"conf": 2, "E": 67.82, "rms": -1.0, "geom": "OH", "total_charge": 0, "CA_charge": 2, "smiles": "C[C:1]#[3N:2]->[Ru+2:3]1(<-[4H-:4])(<-[5C-:5]#[O+:6])(<-[6H-:7])<-[1N@H:8]([CH2:9][CH2:10][N:11]([CH3:12])[CH3:13])[CH2:14][CH2:15][2N:16]->1([CH3:17])[CH3:18]", "smiles3D": "C([C:1]#[3N:2]->[Ru+2:3]1(<-[4H-:4])(<-[5C-:5]#[O+:6])(<-[6H-:7])<-[1N@@:8]([C:9]([C:10]([N:11]([C:12]([H:27])([H:28])[H:29])[C:13]([H:30])([H:31])[H:32])([H:25])[H:26])([H:23])[H:24])([H:22])[C:14]([H:33])([H:34])[C:15]([H:35])([H:36])[2N:16]->1([C:17]([H:37])([H:38])[H:39])[C:18]([H:40])([H:41])[H:42])([H:19])([H:20])[H:21]", "smiles3Dx": "C([C:1]#[3N:2]->[Ru+2:3]1(<-[4H-:4])(<-[5C-:5]#[O+:6])(<-[6H-:7])<-[1N@@:8]([C:9]([C:10]([N:11]([C:12]([H:27])([H:28])[H:29])[C:13]([H:30])([H:31])[H:32])([H:25])[H:26])([H:23])[H:24])([H:22])[C:14]([H:33])([H:34])[C:15]([H:35])([H:36])[2N:16]->1([C:17]([H:37])([H:38])[H:39])[C:18]([H:40])([H:41])[H:42])([H:19])([H:20])[H:21]", "dummies": []}
C     -4.3133    -0.5655     2.1256
C     -3.0121    -0.3993     1.4802
N     -1.9187    -0.2520     0.9385
Ru     0.0000     0.0000     0.0000
H      0.6472     0.2978     1.5318
C      2.0001     0.1833    -0.7593
O      3.1237     0.2871    -1.1848
H      0.2497    -1.6620     0.1763
N     -0.3001     2.0791    -0.4099
C     -0.3730     2.9321     0.7155
C     -1.4098     2.5677     1.7911
N     -1.5999     3.6877     2.7407
C     -2.8767     3.5284     3.4574
C     -0.4991     3.7537     3.7193
C     -1.3692     2.1027    -1.3091
C     -1.1030     1.1033    -2.4654
N     -0.8772    -0.2328    -1.9839
C      0.0198    -0.9577    -2.8083
C     -2.0885    -0.9606    -1.8625
H     -4.5661     0.3578     2.6866
H     -5.0872    -0.7530     1.3532
H     -4.2719    -1.4249     2.8257
H      0.4414     2.3527    -0.8781
H      0.6322     2.9354     1.1949
H     -0.5851     3.9688     0.3616
H     -1.0883     1.6547     2.3341
H     -2.3722     2.3556     1.2869
H     -2.9104     2.5626     4.0101
H     -3.0254     4.3641     4.1751
H     -3.7254     3.5658     2.7409
H     -0.6706     4.5862     4.4356
H     -0.4054     2.8035     4.2912
H      0.4622     3.9716     3.2113
H     -2.3097     1.8150    -0.8038
H     -1.4914     3.1260    -1.7350
H     -0.2135     1.4746    -3.0241
H     -1.9719     1.1285    -3.1654
H     -0.4380    -1.1746    -3.8015
H      0.2850    -1.9200    -2.3174
H      0.9547    -0.3882    -2.9816
H     -2.8716    -0.3505    -1.3668
H     -1.9130    -1.8722    -1.2503
H     -2.4779    -1.2699    -2.8607
