37
{"conf": 0, "E": 138.56, "rms": -1.0, "geom": "OH", "total_charge": 0, "CA_charge": 2, "smiles": "C[1N:1]1([CH3:2])->[Ru+2:3]2(<-[3H-:4])(<-[4H-:5])(<-[6C-:6]#[O+:7])<-[2N@H:8]([CH2:9][CH2:10]1)[CH2:11][CH2:12][5N:13]->2([CH3:14])[CH3:15]", "smiles3D": "C([1N:1]1([C:2]([H:19])([H:20])[H:21])->[Ru+2:3]2(<-[3H-:4])(<-[4H-:5])(<-[6C-:6]#[O+:7])<-[2N@:8]([H:22])([C:9]([H:23])([H:24])[C:10]1([H:25])[H:26])[C:11]([H:27])([H:28])[C:12]([H:29])([H:30])[5N:13]->2([C:14]([H:31])([H:32])[H:33])[C:15]([H:34])([H:35])[H:36])([H:16])([H:17])[H:18]", "smiles3Dx": "C([1N:1]1([C:2]([H:19])([H:20])[H:21])->[Ru+2:3]2(<-[3H-:4])(<-[4H-:5])(<-[6C-:6]#[O+:7])<-[2N@:8]([H:22])([C:9]([H:23])([H:24])[C:10]1([H:25])[H:26])[C:11]([H:27])([H:28])[C:12]([H:29])([H:30])[5N:13]->2([C:14]([H:31])([H:32])[H:33])[C:15]([H:34])([H:35])[H:36])([H:16])([H:17])[H:18]", "dummies": []}
C     -1.0371     2.7608    -0.8736
N     -0.4982     2.1134     0.2628
C      0.7218     2.7592     0.6006
Ru     0.0000     0.0000     0.0000
H      0.5979     0.2270     1.5640
H      1.5170     0.2475    -0.7025
C      0.4901    -2.0332     0.5228
O      0.7642    -3.1701     0.8173
N     -2.0179    -0.0002     0.4730
C     -2.0781     0.6785     1.6548
C     -1.4316     2.0987     1.4018
C     -2.4644    -1.2757     0.2565
C     -2.0404    -1.6867    -1.2125
N     -0.9908    -0.8285    -1.7815
C     -1.5264     0.1394    -2.6700
C     -0.0182    -1.5773    -2.5049
H     -0.3795     2.6003    -1.7494
H     -2.0492     2.3952    -1.1037
H     -1.1164     3.8595    -0.6963
H      1.4370     2.6921    -0.2498
H      1.1932     2.2799     1.4821
H      0.5501     3.8346     0.8419
H     -2.4588     0.5140    -0.1279
H     -3.1334     0.7965     1.9945
H     -1.5019     0.1345     2.4333
H     -2.2588     2.8271     1.2302
H     -0.9193     2.4052     2.3437
H     -3.5749    -1.3229     0.3525
H     -2.0140    -1.9715     0.9935
H     -1.7029    -2.7482    -1.1777
H     -2.9514    -1.6580    -1.8560
H     -2.3911     0.6596    -2.2320
H     -0.7489     0.8791    -2.9366
H     -1.8814    -0.3426    -3.6118
H      0.8171    -0.9091    -2.8121
H      0.4060    -2.3929    -1.8943
H     -0.4641    -2.0370    -3.4181
37
{"conf": 1, "E": 138.56, "rms": -1.0, "geom": "OH", "total_charge": 0, "CA_charge": 2, "smiles": "C[1N:1]1([CH3:2])->[Ru+2:3]2(<-[3H-:4])(<-[4H-:5])(<-[6C-:6]#[O+:7])<-[2N@H:8]([CH2:9][CH2:10]1)[CH2:11][CH2:12][5N:13]->2([CH3:14])[CH3:15]", "smiles3D": "C([1N:1]1([C:2]([H:19])([H:20])[H:21])->[Ru+2:3]2(<-[3H-:4])(<-[4H-:5])(<-[6C-:6]#[O+:7])<-[2N@:8]([H:22])([C:9]([H:23])([H:24])[C:10]1([H:25])[H:26])[C:11]([H:27])([H:28])[C:12]([H:29])([H:30])[5N:13]->2([C:14]([H:31])([H:32])[H:33])[C:15]([H:34])([H:35])[H:36])([H:16])([H:17])[H:18]", "smiles3Dx": "C([1N:1]1([C:2]([H:19])([H:20])[H:21])->[Ru+2:3]2(<-[3H-:4])(<-[4H-:5])(<-[6C-:6]#[O+:7])<-[2N@:8]([H:22])([C:9]([H:23])([H:24])[C:10]1([H:25])[H:26])[C:11]([H:27])([H:28])[C:12]([H:29])([H:30])[5N:13]->2([C:14]([H:31])([H:32])[H:33])[C:15]([H:34])([H:35])[H:36])([H:16])([H:17])[H:18]", "dummies": []}
C     -1.1103     0.2537     2.6829
N      0.1401    -0.1906     2.1744
C      0.3712    -1.4989     2.6601
Ru     0.0000     0.0000     0.0000
H     -0.3815     1.5871     0.4364
H     -1.6263    -0.4417    -0.1259
C     -0.0260     0.9366    -1.9415
O     -0.0403     1.4624    -3.0267
N      2.0326     0.0857     0.3959
C      2.1495     1.1057     1.2941
C      1.2244     0.7427     2.5235
C      2.6649     0.0067    -0.8154
C      2.1018    -1.2691    -1.5651
N      0.8390    -1.7698    -1.0028
C     -0.0807    -2.1658    -2.0164
C      1.0466    -2.8910    -0.1584
H     -1.3456     1.2745     2.3201
H     -1.9234    -0.4267     2.3438
H     -1.1019     0.2760     3.7980
H      1.3854    -1.8474     2.4130
H      0.2758    -1.5255     3.7715
H     -0.3728    -2.1990     2.2342
H      2.2750    -0.6636     0.8427
H      1.8085     2.0569     0.8327
H      3.2052     1.2202     1.6337
H      1.8690     0.3023     3.3202
H      0.8158     1.6984     2.9278
H      3.7667    -0.0974    -0.6754
H      2.4672     0.9199    -1.4131
H      2.8825    -2.0653    -1.5264
H      1.9724    -0.9957    -2.6377
H      0.2955    -3.0557    -2.5737
H     -1.0607    -2.4208    -1.5546
H     -0.2506    -1.3598    -2.7509
H      1.8592    -2.7133     0.5616
H      0.1160    -3.1294     0.3892
H      1.3343    -3.7880    -0.7566
