43
{"conf": 0, "E": 61.39, "rms": -1.0, "geom": "OH", "total_charge": 0, "CA_charge": 2, "smiles": "C[C:1]#[3N:2]->[Ru+2:3]1(<-[4C-:4]#[O+:5])(<-[5H-:6])(<-[6H-:7])<-[1N@H:8]([CH2:9][CH2:10][N:11]([CH3:12])[CH3:13])[CH2:14][CH2:15][2N:16]->1([CH3:17])[CH3:18]", "smiles3D": "C([C:1]#[3N:2]->[Ru+2:3]1(<-[4C-:4]#[O+:5])(<-[5H-:6])(<-[6H-:7])<-[1N@@:8]([C:9]([C:10]([N:11]([C:12]([H:27])([H:28])[H:29])[C:13]([H:30])([H:31])[H:32])([H:25])[H:26])([H:23])[H:24])([H:22])[C:14]([H:33])([H:34])[C:15]([H:35])([H:36])[2N:16]->1([C:17]([H:37])([H:38])[H:39])[C:18]([H:40])([H:41])[H:42])([H:19])([H:20])[H:21]", "smiles3Dx": "C([C:1]#[3N:2]->[Ru+2:3]1(<-[4C-:4]#[O+:5])(<-[5H-:6])(<-[6H-:7])<-[1N@@:8]([C:9]([C:10]([N:11]([C:12]([H:27])([H:28])[H:29])[C:13]([H:30])([H:31])[H:32])([H:25])[H:26])([H:23])[H:24])([H:22])[C:14]([H:33])([H:34])[C:15]([H:35])([H:36])[2N:16]->1([C:17]([H:37])([H:38])[H:39])[C:18]([H:40])([H:41])[H:42])([H:19])([H:20])[H:21]", "dummies": []}
C      4.4138     0.0656     1.9839
C      3.0836     0.0418     1.3778
N      1.9626     0.0222     0.8748
Ru     0.0000     0.0000     0.0000
C     -0.0971     2.1269     0.2291
O     -0.1517     3.3246     0.3589
H     -1.5142     0.0895    -0.7459
H      0.7255     0.1904    -1.5145
N     -0.9990    -0.3851     1.8674
C     -0.1598    -0.3710     3.0075
C      0.2375     1.0496     3.4389
N      1.1504     0.9993     4.6032
C      0.3954     0.9628     5.8683
C      2.0492     2.1654     4.6050
C     -1.6095    -1.6315     1.6317
C     -0.6308    -2.6508     0.9963
N     -0.0373    -2.1492    -0.2082
C      1.2812    -2.6220    -0.4005
C     -0.8228    -2.4377    -1.3500
H      4.3248    -0.1196     3.0742
H      5.0439    -0.7231     1.5241
H      4.8790     1.0584     1.8148
H     -1.6570     0.2450     1.9725
H     -0.6873    -0.8531     3.8610
H      0.7604    -0.9522     2.8022
H      0.7386     1.5321     2.5805
H     -0.6745     1.6489     3.6598
H     -0.2706     0.0764     5.9026
H     -0.2188     1.8817     6.0003
H      1.0948     0.8723     6.7272
H      2.7270     2.1304     5.4853
H      2.6945     2.1513     3.7006
H      1.4725     3.1173     4.6257
H     -2.4620    -1.4820     0.9328
H     -2.0174    -2.0615     2.5758
H      0.1483    -2.8878     1.7545
H     -1.1893    -3.5951     0.7918
H      1.7510    -2.0912    -1.2578
H      1.2818    -3.7169    -0.6104
H      1.9026    -2.4417     0.5007
H     -1.8758    -2.1235    -1.1924
H     -0.8129    -3.5292    -1.5780
H     -0.4243    -1.8848    -2.2288
43
{"conf": 1, "E": 68.7, "rms": -1.0, "geom": "OH", "total_charge": 0, "CA_charge": 2, "smiles": "C[C:1]#[3N:2]->[Ru+2:3]1(<-[4C-:4]#[O+:5])(<-[5H-:6])(<-[6H-:7])<-[1N@H:8]([CH2:9][CH2:10][N:11]([CH3:12])[CH3:13])[CH2:14][CH2:15][2N:16]->1([CH3:17])[CH3:18]", "smiles3D": "C([C:1]#[3N:2]->[Ru+2:3]1(<-[4C-:4]#[O+:5])(<-[5H-:6])(<-[6H-:7])<-[1N@@:8]([C:9]([C:10]([N:11]([C:12]([H:27])([H:28])[H:29])[C:13]([H:30])([H:31])[H:32])([H:25])[H:26])([H:23])[H:24])([H:22])[C:14]([H:33])([H:34])[C:15]([H:35])([H:36])[2N:16]->1([C:17]([H:37])([H:38])[H:39])[C:18]([H:40])([H:41])[H:42])([H:19])([H:20])[H:21]", "smiles3Dx": "C([C:1]#[3N:2]->[Ru+2:3]1(<-[4C-:4]#[O+:5])(<-[5H-:6])(<-[6H-:7])<-[1N@@:8]([C:9]([C:10]([N:11]([C:12]([H:27])([H:28])[H:29])[C:13]([H:30])([H:31])[H:32])([H:25])[H:26])([H:23])[H:24])([H:22])[C:14]([H:33])([H:34])[C:15]([H:35])([H:36])[2N:16]->1([C:17]([H:37])([H:38])[H:39])[C:18]([H:40])([H:41])[H:42])([H:19])([H:20])[H:21]", "dummies": []}
C      1.6607    -1.3013    -4.3546
C      1.1530    -0.9087    -3.0408
N      0.7229    -0.5789    -1.9378
Ru     0.0000     0.0000     0.0000
C      0.0643    -2.0615     0.5796
O      0.1007    -3.2222     0.9050
H     -0.4871     0.3868     1.5710
H      1.6081     0.1861     0.4853
N     -2.0743    -0.0060    -0.5684
C     -2.6842    -1.2550    -0.8535
C     -2.3486    -1.9277    -2.1996
N     -3.0641    -1.2829    -3.3255
C     -2.2917    -1.4145    -4.5716
C     -4.4003    -1.8754    -3.5169
C     -2.1465     0.9854    -1.5445
C     -1.5016     2.2896    -1.0159
N     -0.1420     2.0812    -0.5932
C      0.1871     2.8589     0.5394
C      0.7839     2.3291    -1.6343
H      2.7487    -1.5059    -4.2850
H      1.1323    -2.2152    -4.6959
H      1.4832    -0.4799    -5.0789
H     -2.5188     0.3146     0.1698
H     -3.7894    -1.1201    -0.8011
H     -2.4062    -1.9572    -0.0420
H     -1.2577    -1.9074    -2.3397
H     -2.6121    -3.0084    -2.1350
H     -2.8483    -0.9671    -5.4234
H     -1.3365    -0.8565    -4.4862
H     -2.0728    -2.4819    -4.7991
H     -4.3300    -2.9484    -3.8048
H     -4.9496    -1.3257    -4.3113
H     -5.0058    -1.7925    -2.5913
H     -1.5974     0.6648    -2.4513
H     -3.2092     1.1862    -1.8163
H     -2.1289     2.6498    -0.1673
H     -1.5526     3.0625    -1.8194
H     -0.4955     2.6216     1.3831
H      0.1016     3.9469     0.3108
H      1.2285     2.6400     0.8650
H      0.4496     1.8559    -2.5821
H      1.7744     1.9049    -1.3604
H      0.9000     3.4233    -1.8156
43
{"conf": 2, "E": 61.36, "rms": -1.0, "geom": "OH", "total_charge": 0, "CA_charge": 2, "smiles": "C[C:1]#[3N:2]->[Ru+2:3]1(<-[4C-:4]#[O+:5])(<-[5H-:6])(<-[6H-:7])<-[1N@H:8]([CH2:9][CH2:10][N:11]([CH3:12])[CH3:13])[CH2:14][CH2:15][2N:16]->1([CH3:17])[CH3:18]", "smiles3D": "C([C:1]#[3N:2]->[Ru+2:3]1(<-[4C-:4]#[O+:5])(<-[5H-:6])(<-[6H-:7])<-[1N@@:8]([C:9]([C:10]([N:11]([C:12]([H:27])([H:28])[H:29])[C:13]([H:30])([H:31])[H:32])([H:25])[H:26])([H:23])[H:24])([H:22])[C:14]([H:33])([H:34])[C:15]([H:35])([H:36])[2N:16]->1([C:17]([H:37])([H:38])[H:39])[C:18]([H:40])([H:41])[H:42])([H:19])([H:20])[H:21]", "smiles3Dx": "C([C:1]#[3N:2]->[Ru+2:3]1(<-[4C-:4]#[O+:5])(<-[5H-:6])(<-[6H-:7])<-[1N@@:8]([C:9]([C:10]([N:11]([C:12]([H:27])([H:28])[H:29])[C:13]([H:30])([H:31])[H:32])([H:25])[H:26])([H:23])[H:24])([H:22])[C:14]([H:33])([H:34])[C:15]([H:35])([H:36])[2N:16]->1([C:17]([H:37])([H:38])[H:39])[C:18]([H:40])([H:41])[H:42])([H:19])([H:20])[H:21]", "dummies": []}
C      1.9345     3.2162    -3.0552
C      1.3517     2.2447    -2.1306
N      0.8601     1.4296    -1.3537
Ru     0.0000     0.0000     0.0000
C      0.8791    -1.5622    -1.1742
O      1.3747    -2.4408    -1.8349
H     -0.6179    -1.1894     1.0285
H      1.4034     0.0733     0.9387
N     -1.8655     0.0039    -1.0647
C     -1.7135    -0.2670    -2.4453
C     -1.8971    -1.7638    -2.7911
N     -3.2442    -2.0401    -3.3377
C     -3.2641    -3.3708    -3.9670
C     -4.2718    -1.9825    -2.2835
C     -2.3999     1.2679    -0.7891
C     -2.2976     1.5914     0.7184
N     -0.9477     1.5346     1.1878
C     -0.8738     1.1304     2.5407
C     -0.2595     2.7594     1.0138
H      3.0268     3.0400    -3.1366
H      1.4656     3.1026    -4.0541
H      1.7523     4.2425    -2.6754
H     -2.4045    -0.6245    -0.6756
H     -2.4390     0.3263    -3.0524
H     -0.6932     0.0393    -2.7466
H     -1.6860    -2.4005    -1.9033
H     -1.1292    -2.0164    -3.5573
H     -4.2668    -3.5787    -4.3992
H     -3.0123    -4.1681    -3.2320
H     -2.5379    -3.4091    -4.8074
H     -5.2659    -2.2618    -2.6953
H     -4.0285    -2.6661    -1.4398
H     -4.3733    -0.9457    -1.9032
H     -3.4734     1.2997    -1.0904
H     -1.8495     2.0447    -1.3627
H     -2.7325     2.6033     0.8975
H     -2.9324     0.8511     1.2586
H     -1.3442     0.1334     2.6752
H      0.1893     1.0564     2.8617
H     -1.3988     1.8606     3.1997
H     -0.4276     3.1713    -0.0025
H     -0.6010     3.5186     1.7559
H      0.8320     2.5945     1.1480
