43
{"conf": 0, "E": 62.12, "rms": -1.0, "geom": "OH", "total_charge": 0, "CA_charge": 2, "smiles": "C[C:1]#[6N:2]->[Ru+2:3]1(<-[3C-:4]#[O+:5])(<-[4H-:6])(<-[5H-:7])<-[1N@H:8]([CH2:9][CH2:10][N:11]([CH3:12])[CH3:13])[CH2:14][CH2:15][2N:16]->1([CH3:17])[CH3:18]", "smiles3D": "C([C:1]#[6N:2]->[Ru+2:3]1(<-[3C-:4]#[O+:5])(<-[4H-:6])(<-[5H-:7])<-[1N@@:8]([C:9]([C:10]([N:11]([C:12]([H:27])([H:28])[H:29])[C:13]([H:30])([H:31])[H:32])([H:25])[H:26])([H:23])[H:24])([H:22])[C:14]([H:33])([H:34])[C:15]([H:35])([H:36])[2N:16]->1([C:17]([H:37])([H:38])[H:39])[C:18]([H:40])([H:41])[H:42])([H:19])([H:20])[H:21]", "smiles3Dx": "C([C:1]#[6N:2]->[Ru+2:3]1(<-[3C-:4]#[O+:5])(<-[4H-:6])(<-[5H-:7])<-[1N@@:8]([C:9]([C:10]([N:11]([C:12]([H:27])([H:28])[H:29])[C:13]([H:30])([H:31])[H:32])([H:25])[H:26])([H:23])[H:24])([H:22])[C:14]([H:33])([H:34])[C:15]([H:35])([H:36])[2N:16]->1([C:17]([H:37])([H:38])[H:39])[C:18]([H:40])([H:41])[H:42])([H:19])([H:20])[H:21]", "dummies": []}
C      1.5970    -4.3029    -1.5113
C      1.1146    -3.0006    -1.0527
N      0.7081    -1.9066    -0.6688
Ru     0.0000     0.0000     0.0000
C     -1.6800    -0.9856     0.9137
O     -2.6216    -1.5377     1.4264
H      0.8449    -0.1870     1.4517
H      1.3842     0.7110    -0.6597
N     -0.6787     1.9576     0.5726
C     -1.4146     1.8931     1.7722
C     -1.4510     3.2254     2.5517
N     -0.0864     3.6847     2.8944
C      0.3923     3.0512     4.1358
C     -0.0642     5.1479     3.0526
C     -1.3673     2.5029    -0.5403
C     -2.0060     1.4164    -1.4407
N     -1.0973     0.3852    -1.8153
C     -0.1756     0.8013    -2.8064
C     -1.7824    -0.7742    -2.2626
H      1.0762    -4.5796    -2.4510
H      1.3905    -5.0680    -0.7349
H      2.6895    -4.2485    -1.6960
H      0.0776     2.4519     0.7179
H     -0.9541     1.1189     2.4181
H     -2.4620     1.5803     1.5583
H     -2.0759     3.1013     3.4654
H     -1.9726     3.9741     1.9170
H      1.4301     3.3815     4.3575
H     -0.2589     3.3099     5.0006
H      0.4261     1.9482     4.0253
H     -0.3303     5.6390     2.0918
H      0.9582     5.4931     3.3190
H     -0.7775     5.4781     3.8408
H     -2.1743     3.1934    -0.2066
H     -0.6575     3.1004    -1.1557
H     -2.8574     0.9774    -0.8724
H     -2.4233     1.9084    -2.3508
H     -0.7002     1.0510    -3.7580
H      0.5578    -0.0118    -3.0055
H      0.3896     1.6932    -2.4722
H     -2.3742    -0.5447    -3.1795
H     -1.0622    -1.5849    -2.5030
H     -2.4785    -1.1510    -1.4880
43
{"conf": 1, "E": 61.05, "rms": -1.0, "geom": "OH", "total_charge": 0, "CA_charge": 2, "smiles": "C[C:1]#[6N:2]->[Ru+2:3]1(<-[3C-:4]#[O+:5])(<-[4H-:6])(<-[5H-:7])<-[1N@H:8]([CH2:9][CH2:10][N:11]([CH3:12])[CH3:13])[CH2:14][CH2:15][2N:16]->1([CH3:17])[CH3:18]", "smiles3D": "C([C:1]#[6N:2]->[Ru+2:3]1(<-[3C-:4]#[O+:5])(<-[4H-:6])(<-[5H-:7])<-[1N@@:8]([C:9]([C:10]([N:11]([C:12]([H:27])([H:28])[H:29])[C:13]([H:30])([H:31])[H:32])([H:25])[H:26])([H:23])[H:24])([H:22])[C:14]([H:33])([H:34])[C:15]([H:35])([H:36])[2N:16]->1([C:17]([H:37])([H:38])[H:39])[C:18]([H:40])([H:41])[H:42])([H:19])([H:20])[H:21]", "smiles3Dx": "C([C:1]#[6N:2]->[Ru+2:3]1(<-[3C-:4]#[O+:5])(<-[4H-:6])(<-[5H-:7])<-[1N@@:8]([C:9]([C:10]([N:11]([C:12]([H:27])([H:28])[H:29])[C:13]([H:30])([H:31])[H:32])([H:25])[H:26])([H:23])[H:24])([H:22])[C:14]([H:33])([H:34])[C:15]([H:35])([H:36])[2N:16]->1([C:17]([H:37])([H:38])[H:39])[C:18]([H:40])([H:41])[H:42])([H:19])([H:20])[H:21]", "dummies": []}
C     -4.0528    -1.7395    -1.9744
C     -2.8265    -1.2108    -1.3778
N     -1.7963    -0.7682    -0.8758
Ru     0.0000     0.0000     0.0000
C      1.1285    -1.0568    -1.4980
O      1.7609    -1.6482    -2.3374
H     -0.0427     1.3216    -1.0499
H     -0.9299     0.8952     1.0898
N      1.7620     0.7051     0.9876
C      2.6149     1.4184     0.1182
C      2.3016     2.9260     0.0932
N      2.6028     3.5475     1.4024
C      4.0107     3.9769     1.4750
C      1.7258     4.7064     1.6354
C      2.3221    -0.4511     1.5364
C      1.2454    -1.2698     2.2856
N      0.1458    -1.6236     1.4348
C      0.3624    -2.8532     0.7647
C     -1.0716    -1.6799     2.1548
H     -4.7861    -0.9169    -2.1025
H     -4.4815    -2.5171    -1.3094
H     -3.8204    -2.1855    -2.9632
H      1.4954     1.2466     1.6774
H      2.4903     1.0237    -0.9076
H      3.6808     1.2816     0.4115
H      2.8722     3.4140    -0.7298
H      1.2239     3.0313    -0.1571
H      4.2364     4.7567     0.7135
H      4.2326     4.3859     2.4842
H      4.6924     3.1155     1.3206
H      1.9620     5.1804     2.6128
H      1.8364     5.4634     0.8268
H      0.6654     4.3774     1.6838
H      2.7615    -1.0802     0.7328
H      3.1302    -0.1769     2.2550
H      1.7243    -2.1837     2.7110
H      0.8944    -0.6463     3.1409
H      0.2500    -3.7144     1.4645
H     -0.3752    -2.9656    -0.0589
H      1.3827    -2.8951     0.3292
H     -1.9101    -1.9607     1.4807
H     -1.3035    -0.6900     2.6007
H     -1.0076    -2.4308     2.9769
43
{"conf": 2, "E": 70.05, "rms": -1.0, "geom": "OH", "total_charge": 0, "CA_charge": 2, "smiles": "C[C:1]#[6N:2]->[Ru+2:3]1(<-[3C-:4]#[O+:5])(<-[4H-:6])(<-[5H-:7])<-[1N@H:8]([CH2:9][CH2:10][N:11]([CH3:12])[CH3:13])[CH2:14][CH2:15][2N:16]->1([CH3:17])[CH3:18]", "smiles3D": "C([C:1]#[6N:2]->[Ru+2:3]1(<-[3C-:4]#[O+:5])(<-[4H-:6])(<-[5H-:7])<-[1N@@:8]([C:9]([C:10]([N:11]([C:12]([H:27])([H:28])[H:29])[C:13]([H:30])([H:31])[H:32])([H:25])[H:26])([H:23])[H:24])([H:22])[C:14]([H:33])([H:34])[C:15]([H:35])([H:36])[2N:16]->1([C:17]([H:37])([H:38])[H:39])[C:18]([H:40])([H:41])[H:42])([H:19])([H:20])[H:21]", "smiles3Dx": "C([C:1]#[6N:2]->[Ru+2:3]1(<-[3C-:4]#[O+:5])(<-[4H-:6])(<-[5H-:7])<-[1N@@:8]([C:9]([C:10]([N:11]([C:12]([H:27])([H:28])[H:29])[C:13]([H:30])([H:31])[H:32])([H:25])[H:26])([H:23])[H:24])([H:22])[C:14]([H:33])([H:34])[C:15]([H:35])([H:36])[2N:16]->1([C:17]([H:37])([H:38])[H:39])[C:18]([H:40])([H:41])[H:42])([H:19])([H:20])[H:21]", "dummies": []}
C     -4.0243     1.1170    -2.4305
C     -2.8058     0.7804    -1.6949
N     -1.7828     0.4958    -1.0769
Ru     0.0000     0.0000     0.0000
C      0.8499    -0.7253    -1.8335
O      1.3223    -1.1294    -2.8669
H      0.6449     1.5204    -0.3583
H     -0.6905     0.6790     1.3855
N      1.7161    -0.5339     1.1794
C      2.9442    -0.2986     0.4976
C      3.5853    -1.4815    -0.2683
N      4.4977    -0.9959    -1.3276
C      4.8055    -2.0878    -2.2663
C      5.7532    -0.4789    -0.7537
C      1.4746    -1.8136     1.7504
C      0.4558    -2.6658     0.9445
N     -0.7216    -1.9510     0.5734
C     -1.3972    -2.5830    -0.5017
C     -1.6128    -1.7802     1.6595
H     -3.7561     1.4793    -3.4441
H     -4.6643     0.2150    -2.5173
H     -4.5764     1.9115    -1.8876
H      1.7015     0.0684     1.8729
H      3.6951     0.0699     1.2380
H      2.7582     0.5217    -0.2272
H      2.7833    -2.0853    -0.7250
H      4.1331    -2.1458     0.4375
H      5.4802    -1.7257    -3.0719
H      5.2886    -2.9440    -1.7441
H      3.8761    -2.4430    -2.7608
H      5.5542     0.4125    -0.1241
H      6.4382    -0.1455    -1.5633
H      6.2701    -1.2523    -0.1427
H      2.4175    -2.3901     1.8493
H      1.0698    -1.6831     2.7818
H      0.1816    -3.5579     1.5561
H      0.9701    -3.0353     0.0331
H     -0.7405    -2.6636    -1.3900
H     -1.7154    -3.6109    -0.2088
H     -2.3003    -2.0046    -0.7912
H     -1.1047    -1.2868     2.5124
H     -2.0131    -2.7616     2.0056
H     -2.4655    -1.1355     1.3501
