43
{"conf": 0, "E": 62.35, "rms": -1.0, "geom": "OH", "total_charge": 0, "CA_charge": 2, "smiles": "C[C:1]#[5N:2]->[Ru+2:3]1(<-[3C-:4]#[O+:5])(<-[4H-:6])(<-[6H-:7])<-[1N@H:8]([CH2:9][CH2:10][N:11]([CH3:12])[CH3:13])[CH2:14][CH2:15][2N:16]->1([CH3:17])[CH3:18]", "smiles3D": "C([C:1]#[5N:2]->[Ru+2:3]1(<-[3C-:4]#[O+:5])(<-[4H-:6])(<-[6H-:7])<-[1N@@:8]([C:9]([C:10]([N:11]([C:12]([H:27])([H:28])[H:29])[C:13]([H:30])([H:31])[H:32])([H:25])[H:26])([H:23])[H:24])([H:22])[C:14]([H:33])([H:34])[C:15]([H:35])([H:36])[2N:16]->1([C:17]([H:37])([H:38])[H:39])[C:18]([H:40])([H:41])[H:42])([H:19])([H:20])[H:21]", "smiles3Dx": "C([C:1]#[5N:2]->[Ru+2:3]1(<-[3C-:4]#[O+:5])(<-[4H-:6])(<-[6H-:7])<-[1N@@:8]([C:9]([C:10]([N:11]([C:12]([H:27])([H:28])[H:29])[C:13]([H:30])([H:31])[H:32])([H:25])[H:26])([H:23])[H:24])([H:22])[C:14]([H:33])([H:34])[C:15]([H:35])([H:36])[2N:16]->1([C:17]([H:37])([H:38])[H:39])[C:18]([H:40])([H:41])[H:42])([H:19])([H:20])[H:21]", "dummies": []}
C      1.8480    -4.3984    -0.7833
C      1.2870    -3.0675    -0.5548
N      0.8180    -1.9487    -0.3602
Ru     0.0000     0.0000     0.0000
C     -0.9807     1.8563     0.4787
O     -1.5301     2.8955     0.7479
H     -1.0050    -0.7238     1.1469
H     -1.1493    -0.2664    -1.2099
N      1.5773     0.3389     1.4072
C      1.0954     0.5519     2.7152
C      0.9281    -0.7640     3.4977
N      2.2426    -1.4028     3.7321
C      2.8489    -0.9241     4.9866
C      2.1053    -2.8674     3.7793
C      2.2897     1.4108     0.8625
C      2.5793     1.1626    -0.6382
N      1.3779     0.9507    -1.3911
C      0.8191     2.1689    -1.8567
C      1.5808     0.0822    -2.4923
H      2.2612    -4.7927     0.1678
H      2.6570    -4.3333    -1.5396
H      1.0514    -5.0774    -1.1506
H      2.1240    -0.3960     1.3947
H      1.7838     1.2183     3.2838
H      0.1082     1.0485     2.6574
H      0.3942    -0.5654     4.4550
H      0.2684    -1.4239     2.8950
H      3.8642    -1.3592     5.1089
H      2.9704     0.1787     4.9668
H      2.2291    -1.2030     5.8681
H      3.0918    -3.3428     3.9699
H      1.7476    -3.2474     2.7980
H      1.3907    -3.1785     4.5740
H      1.7052     2.3495     0.9693
H      3.2596     1.5337     1.3999
H      3.2442     0.2707    -0.7015
H      3.1476     2.0343    -1.0412
H      1.4141     2.5893    -2.7012
H      0.7904     2.9297    -1.0495
H     -0.2207     1.9899    -2.2082
H      0.6028    -0.1668    -2.9600
H      2.2355     0.5583    -3.2591
H      2.0612    -0.8633    -2.1727
43
{"conf": 1, "E": 62.29, "rms": -1.0, "geom": "OH", "total_charge": 0, "CA_charge": 2, "smiles": "C[C:1]#[5N:2]->[Ru+2:3]1(<-[3C-:4]#[O+:5])(<-[4H-:6])(<-[6H-:7])<-[1N@H:8]([CH2:9][CH2:10][N:11]([CH3:12])[CH3:13])[CH2:14][CH2:15][2N:16]->1([CH3:17])[CH3:18]", "smiles3D": "C([C:1]#[5N:2]->[Ru+2:3]1(<-[3C-:4]#[O+:5])(<-[4H-:6])(<-[6H-:7])<-[1N@@:8]([C:9]([C:10]([N:11]([C:12]([H:27])([H:28])[H:29])[C:13]([H:30])([H:31])[H:32])([H:25])[H:26])([H:23])[H:24])([H:22])[C:14]([H:33])([H:34])[C:15]([H:35])([H:36])[2N:16]->1([C:17]([H:37])([H:38])[H:39])[C:18]([H:40])([H:41])[H:42])([H:19])([H:20])[H:21]", "smiles3Dx": "C([C:1]#[5N:2]->[Ru+2:3]1(<-[3C-:4]#[O+:5])(<-[4H-:6])(<-[6H-:7])<-[1N@@:8]([C:9]([C:10]([N:11]([C:12]([H:27])([H:28])[H:29])[C:13]([H:30])([H:31])[H:32])([H:25])[H:26])([H:23])[H:24])([H:22])[C:14]([H:33])([H:34])[C:15]([H:35])([H:36])[2N:16]->1([C:17]([H:37])([H:38])[H:39])[C:18]([H:40])([H:41])[H:42])([H:19])([H:20])[H:21]", "dummies": []}
C      2.8014    -3.7815    -1.1112
C      1.9548    -2.6378    -0.7729
N      1.2420    -1.6784    -0.4884
Ru     0.0000     0.0000     0.0000
C     -1.0823     1.8074     0.4340
O     -1.6888     2.8211     0.6765
H      1.1927     0.9741    -0.6950
H      0.7569     0.1163     1.5063
N     -1.0264    -0.2731    -1.8630
C     -1.0317     0.9214    -2.6093
C     -1.4190     0.7258    -4.0903
N     -2.8758     0.5151    -4.2430
C     -3.5891     1.7986    -4.3670
C     -3.1547    -0.3166    -5.4247
C     -2.2906    -0.7856    -1.5241
C     -2.1878    -1.8224    -0.3789
N     -1.5563    -1.2914     0.7866
C     -0.9565    -2.3047     1.5769
C     -2.4541    -0.5476     1.5956
H      2.7651    -3.9572    -2.2059
H      2.4337    -4.6830    -0.5794
H      3.8466    -3.5714    -0.8044
H     -0.5639    -0.9130    -2.3290
H     -1.7147     1.6644    -2.1478
H     -0.0047     1.3414    -2.5782
H     -1.0788     1.6078    -4.6798
H     -0.8417    -0.1456    -4.4726
H     -3.2793     2.3472    -5.2846
H     -4.6855     1.6218    -4.4069
H     -3.3981     2.4415    -3.4832
H     -2.7051    -1.3245    -5.2948
H     -2.7460     0.1489    -6.3495
H     -4.2500    -0.4640    -5.5442
H     -2.9706     0.0337    -1.2086
H     -2.7395    -1.2897    -2.4102
H     -3.2131    -2.1875    -0.1334
H     -1.6057    -2.6873    -0.7717
H     -0.2707    -2.9310     0.9746
H     -1.7321    -2.9719     2.0205
H     -0.3684    -1.8429     2.4004
H     -3.1905    -1.2184     2.0973
H     -3.0203     0.1906     0.9942
H     -1.8843     0.0020     2.3772
43
{"conf": 2, "E": 62.74, "rms": -1.0, "geom": "OH", "total_charge": 0, "CA_charge": 2, "smiles": "C[C:1]#[5N:2]->[Ru+2:3]1(<-[3C-:4]#[O+:5])(<-[4H-:6])(<-[6H-:7])<-[1N@H:8]([CH2:9][CH2:10][N:11]([CH3:12])[CH3:13])[CH2:14][CH2:15][2N:16]->1([CH3:17])[CH3:18]", "smiles3D": "C([C:1]#[5N:2]->[Ru+2:3]1(<-[3C-:4]#[O+:5])(<-[4H-:6])(<-[6H-:7])<-[1N@@:8]([C:9]([C:10]([N:11]([C:12]([H:27])([H:28])[H:29])[C:13]([H:30])([H:31])[H:32])([H:25])[H:26])([H:23])[H:24])([H:22])[C:14]([H:33])([H:34])[C:15]([H:35])([H:36])[2N:16]->1([C:17]([H:37])([H:38])[H:39])[C:18]([H:40])([H:41])[H:42])([H:19])([H:20])[H:21]", "smiles3Dx": "C([C:1]#[5N:2]->[Ru+2:3]1(<-[3C-:4]#[O+:5])(<-[4H-:6])(<-[6H-:7])<-[1N@@:8]([C:9]([C:10]([N:11]([C:12]([H:27])([H:28])[H:29])[C:13]([H:30])([H:31])[H:32])([H:25])[H:26])([H:23])[H:24])([H:22])[C:14]([H:33])([H:34])[C:15]([H:35])([H:36])[2N:16]->1([C:17]([H:37])([H:38])[H:39])[C:18]([H:40])([H:41])[H:42])([H:19])([H:20])[H:21]", "dummies": []}
C      2.1958    -1.1372     4.1540
C      1.5405    -0.7977     2.8917
N      0.9871    -0.5093     1.8335
Ru     0.0000     0.0000     0.0000
C     -1.1642     0.3914    -1.7684
O     -1.8175     0.6109    -2.7580
H     -1.3863    -0.7030     0.6565
H      0.4669    -1.4841    -0.6595
N     -0.4315     1.9254     0.8273
C     -1.8249     2.1640     0.9215
C     -2.3449     2.0629     2.3664
N     -2.0942     0.7071     2.9025
C     -1.6912     0.7637     4.3163
C     -3.2867    -0.1452     2.7593
C      0.2697     2.8119     0.0032
C      1.7208     2.3199    -0.2184
N      1.7615     1.0056    -0.7872
C      2.9133     0.2835    -0.3866
C      1.7009     1.0343    -2.2045
H      2.3379    -2.2358     4.2130
H      3.1824    -0.6326     4.2054
H      1.5627    -0.7997     5.0002
H     -0.0488     1.9569     1.6594
H     -2.0835     3.1783     0.5347
H     -2.3585     1.4175     0.3036
H     -1.8177     2.8444     2.9598
H     -3.4272     2.3268     2.3922
H     -0.7339     1.3195     4.4154
H     -1.5129    -0.2611     4.7081
H     -2.4696     1.2623     4.9362
H     -4.1259     0.2249     3.3899
H     -3.6204    -0.1709     1.7000
H     -3.0447    -1.1887     3.0545
H      0.3001     3.8221     0.4754
H     -0.2377     2.8976    -0.9813
H      2.2279     2.3338     0.7736
H      2.2491     3.0496    -0.8768
H      2.8343    -0.7713    -0.7308
H      3.8363     0.7349    -0.8197
H      3.0200     0.2795     0.7158
H      2.6651     1.3839    -2.6426
H      0.9003     1.7164    -2.5571
H      1.4856     0.0125    -2.5874
